@RELATION campuslens_complaints

@ATTRIBUTE complaint STRING
@ATTRIBUTE zone STRING
@ATTRIBUTE facility STRING
@ATTRIBUTE hour NUMERIC
@ATTRIBUTE occupancy NUMERIC
@ATTRIBUTE humidity NUMERIC
@ATTRIBUTE impact NUMERIC
@ATTRIBUTE category {Network,Infrastructure,Cleanliness,Canteen,Electrical,Lab_Equipment,Water,Other}

@DATA
'washroom near cl3 has not been cleaned today','Academic & Teaching','H4 Boys Hostel',10,53,73,1,Cleanliness
'spill outside cr425 creates a safety hazard please fix urgently','General & Utilities','Aryabhatt Bhawan III',12,47,58,4,Cleanliness
'monitor and keyboard are not detected at workstation in cl3 and the room is overcrowded','Labs & Research','CL15',12,8,44,1,Lab_Equipment
'wifi becomes extremely slow near cl3 between 14 00 and 16 00','Labs & Research','CL15',14,100,31,3,Network
'garbage is overflowing in the corridor on floor 4 while the wifi is also unstable','Academic & Teaching','Aryabhatt Bhawan III',13,59,73,3,Cleanliness
'projector in cs1 switches off after ten minutes','Academic & Teaching','A2/2',10,50,69,5,Infrastructure
'wifi becomes extremely slow near cl15 between 11 00 and 13 00 students cannot continue class','Labs & Research','CL3',11,66,26,3,Network
'monitor and keyboard are not detected at workstation in g2 students cannot continue class','Labs & Research','CL1',16,73,70,3,Lab_Equipment
'waiting time at annapurna / main mess is more than twenty minutes','Food','Cafeteria / Canteen',13,90,48,2,Canteen
'network authentication fails for students around cl3 this happens repeatedly','Academic & Teaching','CL3',12,62,40,2,Network
'student common area is overcrowded after 12 00','General & Utilities','Main Gate',12,84,35,5,Other
'classroom door and several chairs need repair on floor 2 beside the canteen queue','Academic & Teaching','A2/2',12,96,73,1,Infrastructure
'power socket near the desk is unsafe in cr425 after a power interruption','Labs & Research','CL22',17,74,42,4,Electrical
'classroom door and several chairs need repair on floor 2','Labs & Research','Aryabhatt Bhawan II',8,38,57,2,Infrastructure
'power socket near the desk is unsafe in ts17','Academic & Teaching','H5 Boys Hostel',8,57,84,2,Network
'network authentication fails for students around cl15 students cannot continue class','Academic & Teaching','CL15',10,73,47,1,Network
'classroom door and several chairs need repair on floor 3','Labs & Research','CL3',18,51,41,3,Infrastructure
'wifi becomes extremely slow near cl3 between 10 00 and 12 00 beside the canteen queue','Academic & Teaching','Aryabhatt Bhawan II',10,60,48,3,Network
'canteen queue is very long at 13 00 with one counter open','Food','Annapurna / Main Mess',13,49,37,5,Canteen
'projector hdmi port is loose in ts17','Academic & Teaching','Aryabhatt Bhawan II',8,42,48,3,Infrastructure
'canteen queue is very long at 13 00 with one counter open','Food','Cafeteria / Canteen',13,95,70,5,Canteen
'classroom door and several chairs need repair on floor 4','Labs & Research','Aryabhatt Bhawan II',14,51,62,4,Infrastructure
'very weak wifi signal on floor 3 of cl15','Library & Study','CL15',11,90,27,4,Network
'food counter is overcrowded between 13 00 and 15 00 students cannot continue class','Food','Cafeteria / Canteen',13,93,70,2,Canteen
'spill outside ts17 creates a safety hazard','Hostels','Washrooms',12,46,37,3,Cleanliness
'billing queue reaches the stairwell near annapurna / main mess','Food','Annapurna / Main Mess',14,85,56,2,Electrical
'food counter is overcrowded between 12 00 and 14 00','Food','Cafeteria / Canteen',12,55,47,3,Canteen
'laboratory equipment reports a calibration error in cl3 beside the canteen queue','Labs & Research','ECE Labs',8,27,69,5,Lab_Equipment
'wifi becomes extremely slow near cl15 between 14 00 and 16 00','Labs & Research','LRC',14,88,86,2,Network
'student common area is overcrowded after 10 00','General & Utilities','Administration Block',10,43,84,2,Other
'internet disconnects repeatedly during the lecture in ff6','Library & Study','CL15',14,100,58,3,Network
'canteen queue is very long at 13 00 with one counter open please fix urgently','Food','Annapurna / Main Mess',13,64,42,2,Canteen
'very weak wifi signal on floor 2 of cl3','Academic & Teaching','CL3',14,63,66,2,Network
'broken writing desk is blocking the aisle in cl22','Academic & Teaching','A2/2',14,61,46,2,Infrastructure
'air conditioner stops cooling after noon on ground floor','Hostels','CL22',15,63,76,1,Electrical
'two ceiling fans are not working in ts17 after a power interruption','Labs & Research','CL22',17,55,23,5,Electrical
'food counter is overcrowded between 13 00 and 15 00','Food','Cafeteria / Canteen',13,57,33,4,Canteen
'drinking water cooler near cs1 is empty','Sports & Recreation','Girls Hostel',12,32,48,4,Water
'garbage is overflowing in the corridor on floor 3','General & Utilities','Aryabhatt Bhawan III',17,59,32,3,Cleanliness
'food counter is overcrowded between 12 00 and 14 00','Food','Annapurna / Main Mess',12,85,42,5,Canteen
'waiting time at cafeteria / canteen is more than twenty minutes this happens repeatedly','Food','Cafeteria / Canteen',13,72,42,3,Canteen
'internet disconnects repeatedly during the lecture in cl15','Labs & Research','LRC',12,94,32,3,Network
'network authentication fails for students around cl3','Labs & Research','CL3',11,67,54,1,Network
'floor near h4 boys hostel is dirty and slippery','Hostels','H4 Boys Hostel',13,46,49,3,Water
'very weak wifi signal on floor 1 of cl3','Academic & Teaching','CL3',12,71,53,3,Network
'billing queue reaches the stairwell near cafeteria / canteen','Food','Cafeteria / Canteen',13,66,58,3,Canteen
'parking congestion blocks the entrance near auditorium','Sports & Recreation','Auditorium',13,30,63,4,Other
'network authentication fails for students around cl3','Academic & Teaching','CL3',12,76,83,2,Network
'air conditioner stops cooling after noon on floor 4','Academic & Teaching','A2/1',13,45,93,3,Electrical
'projector in g2 switches off after ten minutes','Labs & Research','Aryabhatt Bhawan II',14,20,71,2,Infrastructure
'very weak wifi signal on floor 1 of aryabhatt bhawan ii','Labs & Research','Aryabhatt Bhawan II',12,71,44,3,Network
'waiting time at cafeteria / canteen is more than twenty minutes','Food','Cafeteria / Canteen',12,80,73,2,Canteen
'canteen queue is very long at 13 00 with one counter open','Food','Cafeteria / Canteen',13,100,24,1,Canteen
'internet disconnects repeatedly during the lecture in cl3','Labs & Research','Aryabhatt Bhawan II',10,77,49,1,Network
'monitor and keyboard are not detected at workstation in ts17','Labs & Research','ECE Labs',17,54,55,3,Lab_Equipment
'projector in g2 switches off after ten minutes after a power interruption','Labs & Research','A2/2',11,54,53,3,Infrastructure
'wifi becomes extremely slow near cl15 between 10 00 and 12 00','Library & Study','CL15',10,87,38,3,Network
'three lab systems freeze during compilation in cl3 after a power interruption','Labs & Research','CL15',8,76,56,2,Lab_Equipment
'wifi becomes extremely slow near ff6 between 10 00 and 12 00','Library & Study','LRC',10,83,35,2,Network
'internet disconnects repeatedly during the lecture in cl15','Labs & Research','CL15',12,61,41,3,Network
'wifi becomes extremely slow near cl15 between 9 00 and 11 00','Labs & Research','CL15',9,98,45,5,Network
'very weak wifi signal on floor 3 of lrc this happens repeatedly while the wifi is also unstable','Academic & Teaching','LRC',14,83,35,1,Network
'low water pressure reported around girls hostel','Hostels','Girls Hostel',12,63,65,2,Water
'broken writing desk is blocking the aisle in cl22','Labs & Research','CL3',8,67,50,3,Infrastructure
'laboratory equipment reports a calibration error in cl22','Labs & Research','CL3',8,64,47,3,Lab_Equipment
'spill outside cr425 creates a safety hazard','General & Utilities','Aryabhatt Bhawan III',10,54,82,4,Cleanliness
'canteen queue is very long at 12 00 with one counter open','Food','Cafeteria / Canteen',12,74,56,4,Canteen
'wifi becomes extremely slow near ff6 between 11 00 and 13 00 while the wifi is also unstable','Library & Study','Aryabhatt Bhawan II',11,83,60,3,Network
'classroom door and several chairs need repair on floor 2','Labs & Research','CL3',15,20,41,1,Infrastructure
'network authentication fails for students around cl15','Library & Study','CL15',10,63,67,3,Network
'wifi becomes extremely slow near g2 between 9 00 and 11 00 and the room is overcrowded','Academic & Teaching','LRC',9,73,69,1,Network
'very weak wifi signal on floor 4 of lrc','Academic & Teaching','LRC',10,62,53,3,Network
'water is leaking into the corridor on floor 2','Sports & Recreation','Swimming Pool',12,16,54,3,Water
'spill outside cl22 creates a safety hazard','Hostels','Aryabhatt Bhawan III',10,46,50,3,Cleanliness
'laboratory equipment reports a calibration error in cs1','Labs & Research','CL15',10,73,62,1,Lab_Equipment
'water is leaking into the corridor on ground floor','General & Utilities','Swimming Pool',18,28,76,2,Water
'waiting time at annapurna / main mess is more than twenty minutes','Food','Annapurna / Main Mess',12,100,57,5,Canteen
'classroom door and several chairs need repair on ground floor','Academic & Teaching','A2/1',17,35,45,3,Infrastructure
'unclassified campus issue reported around parking','General & Utilities','Parking',14,54,47,4,Other
'internet disconnects repeatedly during the lecture in cr425 near a water cooler','Library & Study','CL3',14,100,50,5,Network
'computer fails to boot during practical class in cs1 beside the canteen queue','Labs & Research','ECE Labs',8,52,48,3,Lab_Equipment
'projector hdmi port is loose in cs1','Labs & Research','CL3',18,63,24,1,Infrastructure
'air conditioner stops cooling after noon on floor 4','Hostels','A2/1',10,37,56,4,Electrical
'low water pressure reported around girls hostel beside the canteen queue','Sports & Recreation','Girls Hostel',12,34,48,5,Water
'computer fails to boot during practical class in cs1','Labs & Research','ECE Labs',15,47,42,4,Lab_Equipment
'laboratory equipment reports a calibration error in cr425 while the wifi is also unstable','Labs & Research','CL3',8,59,20,2,Lab_Equipment
'two ceiling fans are not working in cr425 students cannot continue class','Academic & Teaching','H5 Boys Hostel',13,94,55,3,Electrical
'water is leaking into the corridor on floor 3 after a power interruption','General & Utilities','Girls Hostel',8,62,75,3,Water
'three lab systems freeze during compilation in g2','Labs & Research','CL3',10,54,66,3,Lab_Equipment
'lights flicker repeatedly inside cl22 after a power interruption','Hostels','H5 Boys Hostel',13,69,92,2,Electrical
'network authentication fails for students around lrc','Library & Study','LRC',14,66,61,3,Network
'lights flicker repeatedly inside cl3 after a power interruption','Academic & Teaching','H5 Boys Hostel',14,58,91,1,Electrical
'food counter is overcrowded between 13 00 and 15 00','Food','Cafeteria / Canteen',13,78,45,4,Canteen
'food counter is overcrowded between 14 00 and 16 00','Food','Cafeteria / Canteen',14,93,34,4,Canteen
'computer fails to boot during practical class in cl22 near a water cooler','Labs & Research','CL3',16,62,52,4,Lab_Equipment
'classroom door and several chairs need repair on ground floor','Academic & Teaching','A2/1',14,43,57,3,Infrastructure
'waiting time at cafeteria / canteen is more than twenty minutes students cannot continue class','Food','Cafeteria / Canteen',14,81,62,1,Canteen
'very weak wifi signal on floor 3 of cl3','Labs & Research','CL3',14,39,38,1,Network
'air conditioner stops cooling after noon on floor 4 near a water cooler','Hostels','CL22',17,33,56,4,Electrical
'wifi becomes extremely slow near cl3 between 10 00 and 12 00','Labs & Research','LRC',10,100,38,3,Network
'food counter is overcrowded between 14 00 and 16 00 near a water cooler','Food','Cafeteria / Canteen',14,76,64,1,Canteen
'power socket near the desk is unsafe in cl22 students cannot continue class','Hostels','CL22',14,72,80,3,Electrical
'canteen queue is very long at 13 00 with one counter open and the room is overcrowded','Food','Cafeteria / Canteen',13,71,50,1,Canteen
'projector hdmi port is loose in ff6 while the wifi is also unstable','Academic & Teaching','Aryabhatt Bhawan II',12,19,22,2,Infrastructure
'two ceiling fans are not working in cl3 beside the canteen queue','Academic & Teaching','H5 Boys Hostel',17,71,50,3,Other
'wifi becomes extremely slow near cr425 between 9 00 and 11 00 please fix urgently','Academic & Teaching','Aryabhatt Bhawan II',9,84,30,1,Network
'wifi becomes extremely slow near cs1 between 10 00 and 12 00','Labs & Research','CL15',10,100,56,2,Network
'two ceiling fans are not working in ts17','Labs & Research','H5 Boys Hostel',18,45,86,3,Electrical
'garbage is overflowing in the corridor on floor 1','Academic & Teaching','Aryabhatt Bhawan III',15,76,66,4,Cleanliness
'garbage is overflowing in the corridor on floor 4','Academic & Teaching','H4 Boys Hostel',18,41,48,2,Cleanliness
'power socket near the desk is unsafe in ts17','Academic & Teaching','CL22',15,62,60,4,Electrical
'drinking water cooler near cr425 is empty','General & Utilities','Water cooler',11,70,70,1,Water
'unclassified campus issue reported around administration block near a water cooler','General & Utilities','Administration Block',11,87,36,3,Other
'wifi becomes extremely slow near ts17 between 10 00 and 12 00','Labs & Research','LRC',10,59,83,1,Network
'floor near aryabhatt bhawan iii is dirty and slippery','General & Utilities','H4 Boys Hostel',10,75,28,3,Cleanliness
'projector hdmi port is loose in ff6','Labs & Research','Aryabhatt Bhawan II',16,88,52,5,Infrastructure
'billing queue reaches the stairwell near annapurna / main mess students cannot continue class beside the canteen queue','Food','Annapurna / Main Mess',13,51,74,3,Canteen
'projector hdmi port is loose in ts17','Labs & Research','A2/2',14,27,68,3,Infrastructure
'water is leaking into the corridor on floor 4 this happens repeatedly','General & Utilities','Water cooler',15,64,93,3,Water
'spill outside cs1 creates a safety hazard','Academic & Teaching','Washrooms',10,24,44,4,Cleanliness
'very weak wifi signal on ground floor of cl15 students cannot continue class beside the canteen queue','Library & Study','CL15',10,50,56,3,Network
'air conditioner stops cooling after noon on floor 2','Labs & Research','H5 Boys Hostel',18,36,78,3,Electrical
'very weak wifi signal on floor 4 of cl15','Library & Study','CL15',11,63,50,2,Network
'food counter is overcrowded between 14 00 and 16 00','Food','Cafeteria / Canteen',14,72,28,3,Other
'internet disconnects repeatedly during the lecture in cs1 near a water cooler','Academic & Teaching','LRC',14,71,67,4,Network
'floor near h4 boys hostel is dirty and slippery near a water cooler','Academic & Teaching','H4 Boys Hostel',9,45,90,3,Cleanliness
'air conditioner stops cooling after noon on floor 1','Labs & Research','CL22',9,55,65,4,Electrical
'broken writing desk is blocking the aisle in cs1','Academic & Teaching','A2/2',8,37,41,3,Network
'network authentication fails for students around cl3','Library & Study','CL3',12,86,71,1,Network
'computer fails to boot during practical class in ts17','Labs & Research','CL1',8,68,73,2,Lab_Equipment
'broken writing desk is blocking the aisle in cl22','Labs & Research','Aryabhatt Bhawan II',10,62,44,2,Canteen
'classroom door and several chairs need repair on floor 3','Labs & Research','CL3',10,37,46,3,Infrastructure
'internet disconnects repeatedly during the lecture in cl3 after a power interruption','Academic & Teaching','Aryabhatt Bhawan II',14,91,59,3,Network
'laboratory equipment reports a calibration error in cr425','Labs & Research','ECE Labs',17,30,62,2,Lab_Equipment
'wifi becomes extremely slow near cl3 between 9 00 and 11 00 students cannot continue class','Academic & Teaching','Aryabhatt Bhawan II',9,90,51,2,Network
'air conditioner stops cooling after noon on floor 1','Labs & Research','H5 Boys Hostel',14,70,83,2,Electrical
'broken writing desk is blocking the aisle in cl15','Labs & Research','CL3',9,49,77,2,Infrastructure
'floor near washrooms is dirty and slippery','Academic & Teaching','Washrooms',18,92,50,2,Cleanliness
'three lab systems freeze during compilation in cs1','Labs & Research','CL22',18,65,80,2,Lab_Equipment
'internet disconnects repeatedly during the lecture in cl22','Academic & Teaching','CL3',12,54,54,5,Network
'lights flicker repeatedly inside ff6','Labs & Research','H5 Boys Hostel',11,59,44,3,Electrical
'network authentication fails for students around cl3','Library & Study','CL3',9,25,63,3,Network
'air conditioner stops cooling after noon on floor 1','Hostels','H5 Boys Hostel',13,55,80,2,Electrical
'projector hdmi port is loose in cs1 this happens repeatedly beside the canteen queue','Academic & Teaching','A2/1',18,79,63,4,Infrastructure
'network authentication fails for students around cl15','Library & Study','CL15',10,63,31,5,Network
'network authentication fails for students around aryabhatt bhawan ii this happens repeatedly','Library & Study','Aryabhatt Bhawan II',14,92,67,3,Network
'wifi becomes extremely slow near cr425 between 14 00 and 16 00 after a power interruption','Labs & Research','CL15',14,94,42,3,Network
'projector in cr425 switches off after ten minutes','Academic & Teaching','Aryabhatt Bhawan II',12,98,73,2,Infrastructure
'drinking water cooler near cr425 is empty','Hostels','Water cooler',15,75,46,4,Water
'classroom door and several chairs need repair on ground floor','Academic & Teaching','Aryabhatt Bhawan II',9,65,65,4,Canteen
'internet disconnects repeatedly during the lecture in cl22','Academic & Teaching','Aryabhatt Bhawan II',14,60,42,2,Network
'laboratory equipment reports a calibration error in ff6 while the wifi is also unstable','Labs & Research','CL22',11,36,83,3,Electrical
'laboratory equipment reports a calibration error in cl22','Labs & Research','CL1',16,64,50,2,Lab_Equipment
'floor near washrooms is dirty and slippery near a water cooler','General & Utilities','Washrooms',9,51,89,2,Cleanliness
'waiting time at annapurna / main mess is more than twenty minutes','Food','Annapurna / Main Mess',14,84,65,4,Canteen
'wifi becomes extremely slow near cr425 between 10 00 and 12 00','Labs & Research','Aryabhatt Bhawan II',10,100,49,2,Network
'three lab systems freeze during compilation in ts17','Labs & Research','CL22',11,38,59,1,Lab_Equipment
'very weak wifi signal on floor 4 of aryabhatt bhawan ii','Academic & Teaching','Aryabhatt Bhawan II',10,100,61,2,Network
'air conditioner stops cooling after noon on floor 1','Academic & Teaching','H5 Boys Hostel',9,39,64,2,Electrical
'food counter is overcrowded between 14 00 and 16 00 beside the canteen queue','Food','Annapurna / Main Mess',14,71,64,2,Canteen
'waiting time at cafeteria / canteen is more than twenty minutes after a power interruption','Food','Cafeteria / Canteen',13,62,40,2,Canteen
'very weak wifi signal on floor 4 of aryabhatt bhawan ii','Labs & Research','Aryabhatt Bhawan II',9,70,68,2,Electrical
'projector in cl3 switches off after ten minutes','Academic & Teaching','Aryabhatt Bhawan II',15,71,50,1,Infrastructure
'classroom door and several chairs need repair on floor 3','Labs & Research','A2/2',12,40,58,2,Infrastructure
'floor near aryabhatt bhawan iii is dirty and slippery','Academic & Teaching','Aryabhatt Bhawan III',15,66,45,2,Cleanliness
'canteen queue is very long at 14 00 with one counter open','Food','Cafeteria / Canteen',14,56,37,3,Canteen
'parking congestion blocks the entrance near administration block while the wifi is also unstable','Sports & Recreation','Administration Block',14,34,35,2,Other
'very weak wifi signal on floor 4 of aryabhatt bhawan ii','Academic & Teaching','Aryabhatt Bhawan II',11,61,40,2,Network
'wifi becomes extremely slow near cl22 between 10 00 and 12 00 this happens repeatedly','Labs & Research','CL15',10,90,33,1,Network
'very weak wifi signal on ground floor of cl3 and the room is overcrowded','Labs & Research','CL3',14,87,44,3,Network
'floor near h4 boys hostel is dirty and slippery near a water cooler','General & Utilities','H4 Boys Hostel',8,72,80,5,Cleanliness
'canteen queue is very long at 14 00 with one counter open','Food','Cafeteria / Canteen',14,59,68,2,Canteen
'monitor and keyboard are not detected at workstation in cr425 near a water cooler','Labs & Research','CL22',13,57,82,3,Lab_Equipment
'very weak wifi signal on ground floor of cl15','Labs & Research','CL15',10,73,84,3,Network
'very weak wifi signal on floor 1 of cl3','Academic & Teaching','CL3',9,89,53,3,Network
'very weak wifi signal on floor 2 of cl3','Labs & Research','CL3',12,93,58,5,Network
'monitor and keyboard are not detected at workstation in ts17 students cannot continue class','Labs & Research','ECE Labs',12,58,38,2,Lab_Equipment
'canteen queue is very long at 13 00 with one counter open','Food','Cafeteria / Canteen',13,76,57,1,Water
'waiting time at cafeteria / canteen is more than twenty minutes while the wifi is also unstable','Food','Cafeteria / Canteen',14,94,47,3,Canteen
'unclassified campus issue reported around parking beside the canteen queue','General & Utilities','Parking',15,52,50,4,Other
'internet disconnects repeatedly during the lecture in ff6 students cannot continue class','Academic & Teaching','Aryabhatt Bhawan II',11,65,70,3,Network
'wifi becomes extremely slow near ff6 between 11 00 and 13 00 beside the canteen queue','Labs & Research','CL15',11,75,73,2,Network
'projector hdmi port is loose in ff6','Labs & Research','A2/1',13,50,35,3,Infrastructure
'washroom near cl22 has not been cleaned today','Hostels','Washrooms',14,51,60,4,Cleanliness
'projector in ff6 switches off after ten minutes','Academic & Teaching','A2/2',14,86,67,2,Infrastructure
'food counter is overcrowded between 13 00 and 15 00 students cannot continue class','Food','Annapurna / Main Mess',13,75,20,4,Canteen
'internet disconnects repeatedly during the lecture in cl15 after a power interruption','Labs & Research','LRC',12,42,35,3,Network
'canteen queue is very long at 14 00 with one counter open','Food','Cafeteria / Canteen',14,77,47,1,Canteen
'unclassified campus issue reported around parking please fix urgently after a power interruption','Administration','Parking',16,22,67,1,Other
'water point near water cooler is not operational','Sports & Recreation','Water cooler',14,52,94,3,Water
'spill outside cl15 creates a safety hazard near a water cooler','Hostels','Aryabhatt Bhawan III',11,37,46,3,Cleanliness
'parking congestion blocks the entrance near auditorium','Administration','Auditorium',17,66,65,2,Other
'canteen queue is very long at 12 00 with one counter open','Food','Cafeteria / Canteen',12,100,64,2,Canteen
'three lab systems freeze during compilation in cr425 while the wifi is also unstable','Labs & Research','CL15',11,63,49,1,Lab_Equipment
'broken writing desk is blocking the aisle in ff6','Labs & Research','A2/1',10,80,46,3,Infrastructure
'garbage is overflowing in the corridor on ground floor','Hostels','Washrooms',12,53,66,2,Cleanliness
'projector hdmi port is loose in ff6','Labs & Research','CL3',15,22,72,5,Infrastructure
'air conditioner stops cooling after noon on floor 2 near a water cooler','Labs & Research','H5 Boys Hostel',17,60,64,1,Electrical
'very weak wifi signal on floor 4 of lrc please fix urgently','Academic & Teaching','LRC',12,92,45,1,Network
'spill outside g2 creates a safety hazard near a water cooler','Hostels','Washrooms',12,66,47,5,Cleanliness
'two ceiling fans are not working in ts17 students cannot continue class beside the canteen queue','Hostels','A2/1',17,82,53,3,Electrical
'student common area is overcrowded after 13 00','Administration','Parking',13,71,48,1,Other
'floor near washrooms is dirty and slippery after a power interruption','General & Utilities','Washrooms',12,79,60,2,Cleanliness
'internet disconnects repeatedly during the lecture in cl22','Library & Study','CL15',14,70,87,2,Network
'projector hdmi port is loose in cl3','Labs & Research','A2/2',10,62,46,5,Infrastructure
'very weak wifi signal on floor 1 of cl15','Library & Study','CL15',9,87,54,1,Network
'classroom door and several chairs need repair on floor 3','Academic & Teaching','Aryabhatt Bhawan II',17,54,59,2,Infrastructure
'wifi becomes extremely slow near ts17 between 11 00 and 13 00 this happens repeatedly','Labs & Research','CL3',11,100,42,2,Network
'billing queue reaches the stairwell near cafeteria / canteen','Food','Cafeteria / Canteen',13,100,57,2,Canteen
'monitor and keyboard are not detected at workstation in cl3','Labs & Research','CL3',13,46,72,3,Lab_Equipment
'classroom door and several chairs need repair on floor 4 please fix urgently near a water cooler','Labs & Research','CL3',14,71,65,3,Infrastructure
'very weak wifi signal on ground floor of cl15','Library & Study','CL15',10,62,61,3,Network
'canteen queue is very long at 12 00 with one counter open','Food','Cafeteria / Canteen',12,70,53,4,Canteen
'water is leaking into the corridor on floor 1','Sports & Recreation','Water cooler',18,51,38,1,Water
'broken writing desk is blocking the aisle in ts17','Academic & Teaching','A2/1',14,78,64,5,Infrastructure
'network authentication fails for students around cl15','Library & Study','CL15',10,78,20,4,Network
'broken writing desk is blocking the aisle in cr425','Labs & Research','Aryabhatt Bhawan II',17,50,30,2,Infrastructure
'wifi becomes extremely slow near cl22 between 10 00 and 12 00','Labs & Research','CL3',10,73,46,3,Network
'waiting time at cafeteria / canteen is more than twenty minutes','Food','Cafeteria / Canteen',14,44,49,1,Canteen
'air conditioner stops cooling after noon on ground floor while the wifi is also unstable','Academic & Teaching','H5 Boys Hostel',18,38,76,2,Electrical
'network authentication fails for students around aryabhatt bhawan ii','Library & Study','Aryabhatt Bhawan II',10,46,26,3,Network
'very weak wifi signal on floor 4 of aryabhatt bhawan ii and the room is overcrowded','Academic & Teaching','Aryabhatt Bhawan II',9,69,51,2,Network
'network authentication fails for students around cl3 and the room is overcrowded','Library & Study','CL3',11,53,57,2,Network
'signage is missing for cl15 on floor 4','General & Utilities','Auditorium',15,63,58,1,Electrical
'network authentication fails for students around cl15','Academic & Teaching','CL15',14,62,80,1,Network
'lights flicker repeatedly inside cl22 and the room is overcrowded','Hostels','CL22',15,72,54,2,Electrical
'floor near washrooms is dirty and slippery','Hostels','Washrooms',12,38,47,4,Cleanliness
'laboratory equipment reports a calibration error in g2 students cannot continue class','Labs & Research','CL22',10,51,48,1,Water
'projector in cl15 switches off after ten minutes','Labs & Research','A2/2',9,70,41,2,Infrastructure
'spill outside cr425 creates a safety hazard','Academic & Teaching','Aryabhatt Bhawan III',16,33,33,2,Cleanliness
'garbage is overflowing in the corridor on floor 4','General & Utilities','H4 Boys Hostel',11,55,51,2,Cleanliness
'internet disconnects repeatedly during the lecture in cr425','Labs & Research','LRC',10,83,55,3,Network
'network authentication fails for students around aryabhatt bhawan ii','Academic & Teaching','Aryabhatt Bhawan II',11,78,52,2,Network
'low water pressure reported around swimming pool after a power interruption','Hostels','Swimming Pool',18,65,44,2,Water
'internet disconnects repeatedly during the lecture in cs1 beside the canteen queue','Library & Study','CL15',10,43,32,3,Network
'internet disconnects repeatedly during the lecture in cr425','Labs & Research','CL15',9,81,75,3,Network
'classroom door and several chairs need repair on floor 4','Academic & Teaching','CL3',14,13,49,3,Infrastructure
'wifi becomes extremely slow near cr425 between 11 00 and 13 00','Academic & Teaching','CL3',11,87,67,5,Network
'classroom door and several chairs need repair on floor 4','Labs & Research','Aryabhatt Bhawan II',14,76,50,4,Infrastructure
'classroom door and several chairs need repair on ground floor','Academic & Teaching','A2/1',8,48,75,5,Infrastructure
'very weak wifi signal on floor 1 of aryabhatt bhawan ii this happens repeatedly','Academic & Teaching','Aryabhatt Bhawan II',11,56,65,1,Network
'wifi becomes extremely slow near ts17 between 12 00 and 14 00 please fix urgently','Academic & Teaching','LRC',12,65,40,5,Network
'billing queue reaches the stairwell near cafeteria / canteen','Food','Cafeteria / Canteen',14,44,58,1,Canteen
'washroom near cl15 has not been cleaned today','Hostels','Washrooms',13,68,47,4,Cleanliness
'drinking water cooler near ts17 is empty','General & Utilities','Girls Hostel',14,48,41,2,Water
'canteen queue is very long at 13 00 with one counter open','Food','Cafeteria / Canteen',13,72,43,3,Canteen
'lights flicker repeatedly inside cs1 this happens repeatedly','Hostels','H5 Boys Hostel',13,49,91,1,Electrical
'two ceiling fans are not working in cl3','Labs & Research','A2/1',18,52,67,2,Electrical
'internet disconnects repeatedly during the lecture in g2','Labs & Research','LRC',10,93,66,2,Network
'broken writing desk is blocking the aisle in ts17 students cannot continue class and the room is overcrowded','Academic & Teaching','Aryabhatt Bhawan II',14,54,55,3,Network
'power socket near the desk is unsafe in ff6','Academic & Teaching','CL22',12,40,51,5,Electrical
'wifi becomes extremely slow near ff6 between 14 00 and 16 00','Library & Study','CL15',14,62,73,2,Network
'two ceiling fans are not working in cl22','Labs & Research','H5 Boys Hostel',17,82,56,2,Electrical
'very weak wifi signal on floor 2 of cl15','Academic & Teaching','CL15',10,94,51,1,Network
'spill outside g2 creates a safety hazard beside the canteen queue','Academic & Teaching','H4 Boys Hostel',16,55,44,2,Cleanliness
'two ceiling fans are not working in ts17 please fix urgently','Labs & Research','H5 Boys Hostel',15,54,54,4,Canteen
'internet disconnects repeatedly during the lecture in cr425','Academic & Teaching','CL15',14,48,94,3,Network
'wifi becomes extremely slow near cr425 between 14 00 and 16 00','Library & Study','CL3',14,79,43,3,Network
'billing queue reaches the stairwell near annapurna / main mess','Food','Annapurna / Main Mess',13,81,57,2,Canteen
'billing queue reaches the stairwell near cafeteria / canteen','Food','Cafeteria / Canteen',13,83,22,3,Canteen
'projector hdmi port is loose in cl3','Labs & Research','A2/2',11,52,64,3,Infrastructure
'power socket near the desk is unsafe in g2','Academic & Teaching','H5 Boys Hostel',8,63,49,3,Electrical
'wifi becomes extremely slow near cl3 between 9 00 and 11 00','Labs & Research','CL15',9,96,48,3,Network
'very weak wifi signal on floor 2 of lrc and the room is overcrowded','Academic & Teaching','LRC',9,83,50,2,Network
'very weak wifi signal on floor 3 of lrc','Labs & Research','LRC',11,48,31,1,Network
'floor near h4 boys hostel is dirty and slippery','General & Utilities','H4 Boys Hostel',10,45,83,4,Lab_Equipment
'washroom near cr425 has not been cleaned today','Academic & Teaching','H4 Boys Hostel',16,26,57,2,Cleanliness
'three lab systems freeze during compilation in g2','Labs & Research','CL22',10,74,67,1,Lab_Equipment
'broken writing desk is blocking the aisle in ts17','Labs & Research','CL3',16,42,69,2,Infrastructure
'projector in g2 switches off after ten minutes','Academic & Teaching','A2/2',8,38,48,2,Infrastructure
'network authentication fails for students around cl3','Labs & Research','CL3',9,78,55,4,Network
'classroom door and several chairs need repair on ground floor','Academic & Teaching','A2/1',11,63,59,4,Infrastructure
'two ceiling fans are not working in ts17','Hostels','CL22',12,55,63,4,Electrical
'very weak wifi signal on floor 2 of lrc','Academic & Teaching','LRC',11,100,75,4,Network
'very weak wifi signal on floor 4 of cl3','Labs & Research','CL3',10,95,96,4,Network
'three lab systems freeze during compilation in cl3','Labs & Research','CL1',13,62,20,5,Lab_Equipment
'projector hdmi port is loose in cl15','Academic & Teaching','Aryabhatt Bhawan II',16,50,64,2,Infrastructure
'very weak wifi signal on floor 1 of aryabhatt bhawan ii','Labs & Research','Aryabhatt Bhawan II',10,85,48,5,Network
'monitor and keyboard are not detected at workstation in ff6','Labs & Research','CL3',12,78,52,2,Lab_Equipment
'garbage is overflowing in the corridor on ground floor beside the canteen queue','General & Utilities','Washrooms',17,37,73,4,Cleanliness
'laboratory equipment reports a calibration error in cl15','Labs & Research','CL22',13,37,51,2,Lab_Equipment
'classroom door and several chairs need repair on floor 4 this happens repeatedly','Labs & Research','A2/2',9,59,58,1,Infrastructure
'washroom near g2 has not been cleaned today','General & Utilities','Aryabhatt Bhawan III',17,73,94,1,Cleanliness
'monitor and keyboard are not detected at workstation in cl15','Labs & Research','CL22',14,56,66,2,Lab_Equipment
'internet disconnects repeatedly during the lecture in cl15','Academic & Teaching','Aryabhatt Bhawan II',9,100,44,5,Network
'water is leaking into the corridor on floor 4','Hostels','Girls Hostel',17,54,41,3,Water
'signage is missing for cl15 on floor 2','General & Utilities','Parking',18,77,38,5,Other
'three lab systems freeze during compilation in g2','Labs & Research','CL15',16,38,50,3,Lab_Equipment
'air conditioner stops cooling after noon on floor 4','Academic & Teaching','A2/1',11,25,65,2,Electrical
'internet disconnects repeatedly during the lecture in ts17 while the wifi is also unstable','Labs & Research','LRC',10,72,50,3,Network
'internet disconnects repeatedly during the lecture in cl15','Labs & Research','Aryabhatt Bhawan II',12,62,43,1,Network
'floor near aryabhatt bhawan iii is dirty and slippery','General & Utilities','Aryabhatt Bhawan III',16,66,44,4,Cleanliness
'waiting time at cafeteria / canteen is more than twenty minutes','Food','Cafeteria / Canteen',12,65,57,1,Canteen
'classroom door and several chairs need repair on floor 4','Labs & Research','Aryabhatt Bhawan II',10,63,38,3,Infrastructure
'broken writing desk is blocking the aisle in ts17','Labs & Research','CL3',16,32,55,4,Infrastructure
'signage is missing for ts17 on floor 4','Administration','Administration Block',14,42,44,3,Other
'low water pressure reported around swimming pool please fix urgently','General & Utilities','Swimming Pool',15,25,61,2,Canteen
'student common area is overcrowded after 10 00','General & Utilities','Parking',10,76,50,3,Other
'food counter is overcrowded between 13 00 and 15 00','Food','Cafeteria / Canteen',13,56,42,3,Canteen
'lights flicker repeatedly inside cl15','Hostels','H5 Boys Hostel',15,65,66,4,Electrical
'food counter is overcrowded between 13 00 and 15 00 near a water cooler','Food','Annapurna / Main Mess',13,61,46,1,Canteen
'computer fails to boot during practical class in cl15','Labs & Research','ECE Labs',15,30,43,3,Lab_Equipment
'unclassified campus issue reported around auditorium','Administration','Auditorium',15,67,60,4,Other
'two ceiling fans are not working in ts17 after a power interruption','Labs & Research','A2/1',12,63,72,2,Electrical
'food counter is overcrowded between 12 00 and 14 00 while the wifi is also unstable','Food','Annapurna / Main Mess',12,95,42,2,Canteen
'waiting time at annapurna / main mess is more than twenty minutes','Food','Annapurna / Main Mess',13,63,64,1,Canteen
'two ceiling fans are not working in g2','Hostels','CL22',9,86,67,4,Electrical
'classroom door and several chairs need repair on floor 2','Labs & Research','Aryabhatt Bhawan II',18,48,59,3,Infrastructure
'internet disconnects repeatedly during the lecture in cs1','Academic & Teaching','LRC',9,76,46,1,Network
'canteen queue is very long at 12 00 with one counter open students cannot continue class','Food','Annapurna / Main Mess',12,72,54,2,Canteen
'projector in cl22 switches off after ten minutes','Labs & Research','A2/2',15,60,24,3,Other
'very weak wifi signal on ground floor of aryabhatt bhawan ii','Library & Study','Aryabhatt Bhawan II',14,82,78,2,Network
'spill outside cr425 creates a safety hazard','Academic & Teaching','H4 Boys Hostel',14,60,71,2,Cleanliness
'wifi becomes extremely slow near cl3 between 10 00 and 12 00','Library & Study','CL15',10,73,86,1,Network
'lights flicker repeatedly inside g2 while the wifi is also unstable','Academic & Teaching','H5 Boys Hostel',17,59,62,1,Electrical
'waiting time at annapurna / main mess is more than twenty minutes','Food','Annapurna / Main Mess',12,100,85,4,Canteen
'laboratory equipment reports a calibration error in cl22','Labs & Research','CL3',9,46,59,2,Lab_Equipment
'network authentication fails for students around cl15','Academic & Teaching','CL15',14,37,46,3,Network
'waiting time at annapurna / main mess is more than twenty minutes please fix urgently beside the canteen queue','Food','Annapurna / Main Mess',12,87,55,4,Canteen
'water point near swimming pool is not operational','Hostels','Swimming Pool',17,33,75,1,Water
'classroom door and several chairs need repair on floor 1','Academic & Teaching','Aryabhatt Bhawan II',18,29,20,3,Infrastructure
'lights flicker repeatedly inside cl3 after a power interruption','Hostels','A2/1',16,63,74,4,Electrical
'broken writing desk is blocking the aisle in ts17','Academic & Teaching','A2/2',16,40,55,2,Infrastructure
'waiting time at cafeteria / canteen is more than twenty minutes','Food','Cafeteria / Canteen',14,74,57,4,Canteen
'laboratory equipment reports a calibration error in cl3','Labs & Research','ECE Labs',17,46,45,3,Lab_Equipment
'food counter is overcrowded between 14 00 and 16 00 and the room is overcrowded','Food','Cafeteria / Canteen',14,83,53,3,Canteen
'wifi becomes extremely slow near cs1 between 10 00 and 12 00 this happens repeatedly after a power interruption','Academic & Teaching','CL3',10,69,36,2,Network
'three lab systems freeze during compilation in cl3','Labs & Research','ECE Labs',18,72,72,2,Lab_Equipment
'projector hdmi port is loose in ff6','Academic & Teaching','CL3',16,31,37,1,Infrastructure
'monitor and keyboard are not detected at workstation in cr425','Labs & Research','CL22',9,57,60,1,Lab_Equipment
'very weak wifi signal on floor 4 of lrc','Library & Study','LRC',11,72,37,3,Network
'three lab systems freeze during compilation in cl22','Labs & Research','CL15',9,53,54,2,Lab_Equipment
'laboratory equipment reports a calibration error in g2','Labs & Research','CL22',15,51,64,2,Lab_Equipment
'three lab systems freeze during compilation in cr425 beside the canteen queue','Labs & Research','CL15',17,74,48,5,Lab_Equipment
'broken writing desk is blocking the aisle in cs1 this happens repeatedly','Academic & Teaching','A2/2',8,56,27,2,Cleanliness
'network authentication fails for students around cl3 near a water cooler','Academic & Teaching','CL3',9,65,59,1,Network
'food counter is overcrowded between 14 00 and 16 00','Food','Cafeteria / Canteen',14,99,51,3,Canteen
'internet disconnects repeatedly during the lecture in ff6','Academic & Teaching','CL3',9,63,65,2,Network
'broken writing desk is blocking the aisle in cl15','Labs & Research','A2/1',8,49,59,2,Electrical
'food counter is overcrowded between 12 00 and 14 00','Food','Annapurna / Main Mess',12,63,20,3,Canteen
'projector hdmi port is loose in cl3','Labs & Research','A2/1',13,32,28,2,Infrastructure
'network authentication fails for students around cl3 and the room is overcrowded','Library & Study','CL3',9,57,41,4,Network
'wifi becomes extremely slow near cr425 between 12 00 and 14 00','Academic & Teaching','CL15',12,71,70,4,Network
'internet disconnects repeatedly during the lecture in cl15','Labs & Research','CL15',12,82,53,1,Network
'network authentication fails for students around cl15 near a water cooler','Academic & Teaching','CL15',9,64,70,3,Network
'two ceiling fans are not working in cl3','Academic & Teaching','H5 Boys Hostel',14,60,86,2,Electrical
'network authentication fails for students around cl3','Labs & Research','CL3',10,99,53,5,Network
'network authentication fails for students around aryabhatt bhawan ii beside the canteen queue','Labs & Research','Aryabhatt Bhawan II',12,18,23,1,Network
'unclassified campus issue reported around parking','Sports & Recreation','Parking',16,46,69,2,Other
'broken writing desk is blocking the aisle in cl15 students cannot continue class','Academic & Teaching','CL3',11,68,46,2,Infrastructure
'food counter is overcrowded between 13 00 and 15 00','Food','Annapurna / Main Mess',13,81,38,2,Canteen
'spill outside cr425 creates a safety hazard after a power interruption','Academic & Teaching','H4 Boys Hostel',13,21,56,4,Cleanliness
'wifi becomes extremely slow near cl22 between 11 00 and 13 00','Labs & Research','CL3',11,55,90,3,Network
'two ceiling fans are not working in cl3','Academic & Teaching','H5 Boys Hostel',8,56,63,3,Electrical
'computer fails to boot during practical class in cr425','Labs & Research','CL3',13,38,72,2,Lab_Equipment
'low water pressure reported around swimming pool students cannot continue class','Hostels','Swimming Pool',15,87,73,2,Water
'food counter is overcrowded between 13 00 and 15 00','Food','Annapurna / Main Mess',13,74,70,2,Canteen
'billing queue reaches the stairwell near cafeteria / canteen and the room is overcrowded','Food','Cafeteria / Canteen',13,80,28,3,Canteen
'computer fails to boot during practical class in cl22','Labs & Research','ECE Labs',14,53,42,1,Lab_Equipment
'internet disconnects repeatedly during the lecture in ts17','Library & Study','CL3',12,81,43,3,Network
'very weak wifi signal on floor 3 of aryabhatt bhawan ii','Labs & Research','Aryabhatt Bhawan II',10,77,62,1,Network
'computer fails to boot during practical class in cs1 students cannot continue class','Labs & Research','CL15',11,75,46,5,Lab_Equipment
'internet disconnects repeatedly during the lecture in ts17','Academic & Teaching','CL3',11,71,41,5,Network
'internet disconnects repeatedly during the lecture in cl15','Library & Study','Aryabhatt Bhawan II',14,74,42,3,Network
'low water pressure reported around water cooler','Sports & Recreation','Water cooler',15,75,74,4,Water
'floor near washrooms is dirty and slippery','Hostels','Washrooms',12,74,81,2,Cleanliness
'spill outside g2 creates a safety hazard','Academic & Teaching','H4 Boys Hostel',16,62,40,2,Cleanliness
'parking congestion blocks the entrance near main gate','Sports & Recreation','Main Gate',10,59,25,4,Other
'network authentication fails for students around cl15 students cannot continue class beside the canteen queue','Labs & Research','CL15',9,60,80,5,Network
'waiting time at annapurna / main mess is more than twenty minutes','Food','Annapurna / Main Mess',14,78,57,4,Canteen
'classroom door and several chairs need repair on floor 1','Academic & Teaching','Aryabhatt Bhawan II',12,47,43,2,Infrastructure
'projector in cr425 switches off after ten minutes students cannot continue class','Academic & Teaching','CL3',10,32,67,2,Infrastructure
'three lab systems freeze during compilation in cl15 while the wifi is also unstable','Labs & Research','ECE Labs',13,53,26,2,Lab_Equipment
'food counter is overcrowded between 14 00 and 16 00','Food','Annapurna / Main Mess',14,77,60,3,Canteen
'canteen queue is very long at 13 00 with one counter open','Food','Annapurna / Main Mess',13,67,76,1,Canteen
'three lab systems freeze during compilation in ts17','Labs & Research','CL1',16,58,61,2,Lab_Equipment
'three lab systems freeze during compilation in cs1','Labs & Research','ECE Labs',10,31,63,1,Lab_Equipment
'laboratory equipment reports a calibration error in ts17 this happens repeatedly near a water cooler','Labs & Research','ECE Labs',9,57,40,4,Lab_Equipment
'washroom near g2 has not been cleaned today while the wifi is also unstable','General & Utilities','Aryabhatt Bhawan III',15,66,57,2,Cleanliness
'billing queue reaches the stairwell near annapurna / main mess','Food','Annapurna / Main Mess',13,100,43,4,Infrastructure
'projector hdmi port is loose in cl15','Academic & Teaching','Aryabhatt Bhawan II',10,70,30,3,Infrastructure
'lights flicker repeatedly inside cl15','Academic & Teaching','H5 Boys Hostel',10,60,96,1,Electrical
'projector in cl22 switches off after ten minutes','Labs & Research','A2/1',14,53,51,4,Infrastructure
'monitor and keyboard are not detected at workstation in cr425','Labs & Research','CL15',15,51,42,2,Lab_Equipment
'billing queue reaches the stairwell near annapurna / main mess','Food','Annapurna / Main Mess',14,68,72,5,Canteen
'wifi becomes extremely slow near cl22 between 9 00 and 11 00 beside the canteen queue','Labs & Research','Aryabhatt Bhawan II',9,64,66,5,Network
'lights flicker repeatedly inside ts17','Academic & Teaching','H5 Boys Hostel',8,27,64,2,Electrical
'network authentication fails for students around cl15','Library & Study','CL15',14,52,64,4,Network
'internet disconnects repeatedly during the lecture in ts17','Library & Study','CL3',14,76,53,5,Network
'network authentication fails for students around lrc','Academic & Teaching','LRC',10,63,50,3,Water
'computer fails to boot during practical class in ff6','Labs & Research','CL3',9,46,35,3,Lab_Equipment
'wifi becomes extremely slow near cl15 between 14 00 and 16 00 this happens repeatedly after a power interruption','Labs & Research','CL3',14,84,52,3,Network
'classroom door and several chairs need repair on floor 2','Academic & Teaching','A2/2',18,5,51,2,Infrastructure
'waiting time at annapurna / main mess is more than twenty minutes','Food','Annapurna / Main Mess',14,99,49,3,Canteen
'floor near washrooms is dirty and slippery','General & Utilities','Washrooms',14,64,58,2,Cleanliness
'water is leaking into the corridor on ground floor','General & Utilities','Water cooler',11,28,75,3,Water
'washroom near ff6 has not been cleaned today','General & Utilities','Aryabhatt Bhawan III',9,58,51,1,Cleanliness
'projector hdmi port is loose in ff6 this happens repeatedly','Academic & Teaching','A2/2',11,41,62,2,Infrastructure
'projector hdmi port is loose in cs1 please fix urgently','Academic & Teaching','A2/1',13,78,72,3,Infrastructure
'classroom door and several chairs need repair on floor 2','Academic & Teaching','Aryabhatt Bhawan II',13,28,42,2,Infrastructure
'very weak wifi signal on floor 3 of cl3 while the wifi is also unstable','Academic & Teaching','CL3',10,78,71,2,Network
'projector in cl15 switches off after ten minutes','Academic & Teaching','A2/2',13,68,61,1,Other
'network authentication fails for students around cl15','Library & Study','CL15',10,100,31,4,Network
'food counter is overcrowded between 14 00 and 16 00','Food','Annapurna / Main Mess',14,76,45,2,Canteen
'very weak wifi signal on ground floor of lrc','Academic & Teaching','LRC',10,91,70,3,Network
'broken writing desk is blocking the aisle in g2 this happens repeatedly','Academic & Teaching','CL3',10,75,38,2,Infrastructure
'water point near swimming pool is not operational students cannot continue class while the wifi is also unstable','General & Utilities','Swimming Pool',15,53,73,1,Water
'very weak wifi signal on floor 3 of aryabhatt bhawan ii','Library & Study','Aryabhatt Bhawan II',14,92,74,3,Network
'food counter is overcrowded between 13 00 and 15 00','Food','Annapurna / Main Mess',13,85,70,3,Canteen
'network authentication fails for students around lrc','Academic & Teaching','LRC',9,63,58,4,Network
'billing queue reaches the stairwell near annapurna / main mess','Food','Annapurna / Main Mess',13,100,31,2,Canteen
'network authentication fails for students around aryabhatt bhawan ii and the room is overcrowded','Academic & Teaching','Aryabhatt Bhawan II',9,93,72,4,Network
'low water pressure reported around water cooler while the wifi is also unstable','General & Utilities','Water cooler',9,56,87,2,Water
'internet disconnects repeatedly during the lecture in cr425 near a water cooler','Academic & Teaching','LRC',14,75,90,3,Network
'projector in cl15 switches off after ten minutes please fix urgently','Labs & Research','A2/2',9,58,65,2,Infrastructure
'projector hdmi port is loose in cl22 while the wifi is also unstable','Academic & Teaching','Aryabhatt Bhawan II',16,74,52,3,Infrastructure
'internet disconnects repeatedly during the lecture in g2 beside the canteen queue','Labs & Research','LRC',10,83,63,1,Other
'monitor and keyboard are not detected at workstation in cl22','Labs & Research','ECE Labs',18,40,71,3,Lab_Equipment
'network authentication fails for students around cl3','Library & Study','CL3',12,100,41,1,Network
'projector in cl22 switches off after ten minutes','Academic & Teaching','CL3',8,94,64,2,Infrastructure
'lights flicker repeatedly inside cl15','Academic & Teaching','A2/1',18,38,61,2,Electrical
'washroom near cr425 has not been cleaned today','Academic & Teaching','Washrooms',10,10,68,1,Cleanliness
'internet disconnects repeatedly during the lecture in cs1','Library & Study','Aryabhatt Bhawan II',11,100,86,4,Network
'projector in ts17 switches off after ten minutes','Labs & Research','A2/1',18,65,35,2,Infrastructure
'unclassified campus issue reported around auditorium','Sports & Recreation','Auditorium',14,7,49,3,Other
'projector hdmi port is loose in cl22','Labs & Research','CL3',13,50,20,3,Infrastructure
'broken writing desk is blocking the aisle in g2 please fix urgently','Labs & Research','A2/1',12,53,57,2,Infrastructure
'very weak wifi signal on floor 3 of aryabhatt bhawan ii','Labs & Research','Aryabhatt Bhawan II',10,37,71,4,Network
'internet disconnects repeatedly during the lecture in cr425','Library & Study','CL3',9,86,61,1,Network
'power socket near the desk is unsafe in g2 near a water cooler','Labs & Research','A2/1',10,64,77,4,Electrical
'air conditioner stops cooling after noon on floor 2 beside the canteen queue','Hostels','CL22',12,25,66,1,Electrical
'very weak wifi signal on floor 2 of cl15','Labs & Research','CL15',10,73,55,4,Network
'wifi becomes extremely slow near cl3 between 12 00 and 14 00 while the wifi is also unstable','Academic & Teaching','CL15',12,88,84,3,Network
'floor near h4 boys hostel is dirty and slippery this happens repeatedly','General & Utilities','H4 Boys Hostel',10,53,41,2,Cleanliness
'drinking water cooler near cl22 is empty','General & Utilities','Water cooler',16,70,70,2,Water
'projector hdmi port is loose in ts17 students cannot continue class','Labs & Research','A2/1',11,70,51,2,Infrastructure
'projector in cl15 switches off after ten minutes','Labs & Research','A2/2',16,54,36,2,Infrastructure
'internet disconnects repeatedly during the lecture in cs1 near a water cooler','Library & Study','LRC',14,93,49,3,Network
'projector hdmi port is loose in cl15 students cannot continue class','Labs & Research','A2/1',10,67,40,2,Infrastructure
'wifi becomes extremely slow near cl15 between 14 00 and 16 00','Library & Study','LRC',14,53,28,1,Canteen
'air conditioner stops cooling after noon on ground floor','Academic & Teaching','H5 Boys Hostel',15,30,71,1,Electrical
'network authentication fails for students around cl15','Labs & Research','CL15',11,84,68,2,Network
'wifi becomes extremely slow near ts17 between 10 00 and 12 00','Labs & Research','Aryabhatt Bhawan II',10,73,43,4,Network
'signage is missing for cl15 on floor 1','Administration','Administration Block',11,38,57,1,Other
'billing queue reaches the stairwell near cafeteria / canteen','Food','Cafeteria / Canteen',13,92,55,5,Canteen
'projector hdmi port is loose in cl3 beside the canteen queue','Labs & Research','A2/1',14,46,48,4,Infrastructure
'very weak wifi signal on floor 3 of cl15','Library & Study','CL15',11,50,62,3,Network
'internet disconnects repeatedly during the lecture in cr425','Labs & Research','LRC',14,81,60,2,Network
'lights flicker repeatedly inside cs1','Labs & Research','H5 Boys Hostel',9,46,36,4,Electrical
'garbage is overflowing in the corridor on floor 1','Academic & Teaching','Aryabhatt Bhawan III',14,87,35,5,Infrastructure
'two ceiling fans are not working in cs1','Hostels','A2/1',16,59,73,1,Electrical
'spill outside cr425 creates a safety hazard beside the canteen queue','Hostels','Washrooms',14,78,50,1,Other
'projector in cr425 switches off after ten minutes','Labs & Research','CL3',12,66,20,1,Infrastructure
'projector in cr425 switches off after ten minutes','Academic & Teaching','A2/2',9,55,50,3,Infrastructure
'lights flicker repeatedly inside ff6','Hostels','CL22',14,74,83,1,Electrical
'network authentication fails for students around cl15 and the room is overcrowded','Library & Study','CL15',12,82,76,1,Network
'internet disconnects repeatedly during the lecture in cl22','Library & Study','LRC',12,44,49,2,Network
'broken writing desk is blocking the aisle in cr425 please fix urgently','Labs & Research','A2/1',9,64,55,3,Infrastructure
'washroom near cr425 has not been cleaned today','General & Utilities','Washrooms',14,38,35,2,Cleanliness
'projector in g2 switches off after ten minutes','Academic & Teaching','A2/2',18,65,54,3,Infrastructure
'food counter is overcrowded between 14 00 and 16 00 and the room is overcrowded','Food','Cafeteria / Canteen',14,73,57,3,Canteen
'food counter is overcrowded between 13 00 and 15 00','Food','Annapurna / Main Mess',13,89,54,2,Other
'projector hdmi port is loose in g2','Academic & Teaching','Aryabhatt Bhawan II',11,57,66,1,Infrastructure
'unclassified campus issue reported around auditorium','General & Utilities','Auditorium',16,33,50,2,Other
'food counter is overcrowded between 13 00 and 15 00','Food','Cafeteria / Canteen',13,50,31,2,Canteen
'very weak wifi signal on floor 2 of cl15','Labs & Research','CL15',12,78,38,3,Network
'spill outside cl3 creates a safety hazard','General & Utilities','H4 Boys Hostel',10,69,41,2,Cleanliness
'network authentication fails for students around cl15 near a water cooler','Academic & Teaching','CL15',9,57,56,1,Network
'laboratory equipment reports a calibration error in cl3','Labs & Research','CL15',17,86,22,4,Lab_Equipment
'two ceiling fans are not working in cs1','Academic & Teaching','CL22',18,69,75,4,Electrical
'food counter is overcrowded between 12 00 and 14 00 while the wifi is also unstable','Food','Cafeteria / Canteen',12,98,53,2,Canteen
'projector hdmi port is loose in cl22 please fix urgently','Academic & Teaching','A2/1',16,53,61,2,Infrastructure
'projector in ts17 switches off after ten minutes','Labs & Research','A2/2',18,78,23,2,Infrastructure
'wifi becomes extremely slow near ts17 between 10 00 and 12 00 after a power interruption','Library & Study','Aryabhatt Bhawan II',10,88,43,4,Network
'canteen queue is very long at 14 00 with one counter open','Food','Annapurna / Main Mess',14,88,44,3,Canteen
'wifi becomes extremely slow near cl15 between 11 00 and 13 00','Academic & Teaching','CL15',11,100,69,1,Network
'waiting time at cafeteria / canteen is more than twenty minutes','Food','Cafeteria / Canteen',14,82,42,2,Canteen
'student common area is overcrowded after 16 00','Administration','Parking',16,60,59,3,Other
'laboratory equipment reports a calibration error in g2','Labs & Research','ECE Labs',13,59,21,1,Lab_Equipment
'lights flicker repeatedly inside ff6','Labs & Research','A2/1',12,71,90,2,Electrical
'internet disconnects repeatedly during the lecture in cl15','Academic & Teaching','LRC',10,96,40,3,Network
'waiting time at cafeteria / canteen is more than twenty minutes','Food','Cafeteria / Canteen',12,61,53,4,Canteen
'garbage is overflowing in the corridor on floor 2','Hostels','Aryabhatt Bhawan III',13,34,41,1,Cleanliness
'computer fails to boot during practical class in ts17 students cannot continue class','Labs & Research','CL15',15,51,46,2,Lab_Equipment
'projector in g2 switches off after ten minutes','Academic & Teaching','Aryabhatt Bhawan II',17,45,58,3,Infrastructure
'very weak wifi signal on floor 1 of cl15','Academic & Teaching','CL15',14,58,74,2,Network
'projector hdmi port is loose in cs1 this happens repeatedly','Academic & Teaching','Aryabhatt Bhawan II',10,50,53,4,Infrastructure
'classroom door and several chairs need repair on floor 2','Labs & Research','A2/2',15,50,33,1,Infrastructure
'broken writing desk is blocking the aisle in cl22 this happens repeatedly','Academic & Teaching','A2/2',18,50,45,2,Infrastructure
'signage is missing for cl22 on ground floor after a power interruption','General & Utilities','Administration Block',12,28,44,3,Other
'wifi becomes extremely slow near cr425 between 10 00 and 12 00','Academic & Teaching','CL3',10,81,53,3,Network
'water point near girls hostel is not operational','General & Utilities','Girls Hostel',11,61,62,2,Water
'very weak wifi signal on floor 2 of cl15 this happens repeatedly','Library & Study','CL15',10,85,60,2,Network
'floor near washrooms is dirty and slippery','Academic & Teaching','Washrooms',8,39,63,3,Cleanliness
'network authentication fails for students around aryabhatt bhawan ii','Academic & Teaching','Aryabhatt Bhawan II',10,62,54,1,Network
'broken writing desk is blocking the aisle in cl3','Labs & Research','A2/2',9,25,48,3,Infrastructure
'monitor and keyboard are not detected at workstation in ff6','Labs & Research','CL3',16,52,51,4,Lab_Equipment
'internet disconnects repeatedly during the lecture in g2','Library & Study','CL3',12,93,50,3,Network
'canteen queue is very long at 13 00 with one counter open','Food','Cafeteria / Canteen',13,100,47,3,Canteen
'very weak wifi signal on floor 1 of cl15 beside the canteen queue','Library & Study','CL15',11,91,38,3,Network
'billing queue reaches the stairwell near annapurna / main mess please fix urgently near a water cooler','Food','Annapurna / Main Mess',14,58,50,1,Canteen
'internet disconnects repeatedly during the lecture in cl3','Academic & Teaching','Aryabhatt Bhawan II',12,70,51,1,Network
'washroom near cl3 has not been cleaned today','Hostels','Washrooms',13,63,73,4,Cleanliness
'waiting time at annapurna / main mess is more than twenty minutes','Food','Annapurna / Main Mess',14,63,57,1,Canteen
'food counter is overcrowded between 12 00 and 14 00','Food','Annapurna / Main Mess',12,50,49,2,Canteen
'wifi becomes extremely slow near cl3 between 11 00 and 13 00 students cannot continue class','Labs & Research','LRC',11,99,48,3,Network
'computer fails to boot during practical class in cl22','Labs & Research','CL22',14,49,55,4,Lab_Equipment
'food counter is overcrowded between 13 00 and 15 00','Food','Annapurna / Main Mess',13,79,81,5,Canteen
'washroom near cl22 has not been cleaned today after a power interruption','General & Utilities','Aryabhatt Bhawan III',15,22,62,4,Cleanliness
'water point near water cooler is not operational please fix urgently','Hostels','Water cooler',18,88,55,3,Water
'computer fails to boot during practical class in cl3','Labs & Research','CL15',9,60,34,2,Lab_Equipment
'wifi becomes extremely slow near ts17 between 10 00 and 12 00','Library & Study','LRC',10,100,76,1,Network
'classroom door and several chairs need repair on floor 1','Academic & Teaching','CL3',8,70,35,2,Infrastructure
'very weak wifi signal on floor 1 of aryabhatt bhawan ii and the room is overcrowded','Academic & Teaching','Aryabhatt Bhawan II',10,82,22,2,Network
'lights flicker repeatedly inside cl15','Hostels','H5 Boys Hostel',12,65,54,1,Electrical
'broken writing desk is blocking the aisle in cs1','Labs & Research','Aryabhatt Bhawan II',10,31,89,4,Infrastructure
'lights flicker repeatedly inside cl15','Academic & Teaching','CL22',12,59,66,2,Electrical
'network authentication fails for students around aryabhatt bhawan ii','Academic & Teaching','Aryabhatt Bhawan II',14,100,70,3,Network
'projector in cl15 switches off after ten minutes after a power interruption','Academic & Teaching','CL3',16,44,49,2,Infrastructure
'network authentication fails for students around cl15','Labs & Research','CL15',10,92,65,4,Network
'laboratory equipment reports a calibration error in cs1','Labs & Research','CL1',10,36,34,4,Lab_Equipment
'classroom door and several chairs need repair on floor 2','Academic & Teaching','CL3',13,63,47,3,Infrastructure
'projector in cr425 switches off after ten minutes students cannot continue class near a water cooler','Academic & Teaching','A2/1',8,22,55,1,Infrastructure
'broken writing desk is blocking the aisle in cr425','Labs & Research','A2/2',9,60,74,2,Infrastructure
'wifi becomes extremely slow near ff6 between 12 00 and 14 00 and the room is overcrowded','Library & Study','CL3',12,68,42,1,Network
'projector hdmi port is loose in cr425','Labs & Research','Aryabhatt Bhawan II',15,35,72,1,Infrastructure
'monitor and keyboard are not detected at workstation in ts17 after a power interruption','Labs & Research','CL15',11,27,44,5,Lab_Equipment
'parking congestion blocks the entrance near administration block and the room is overcrowded','General & Utilities','Administration Block',18,85,44,2,Other
'laboratory equipment reports a calibration error in cl3','Labs & Research','CL15',18,59,54,3,Lab_Equipment
'three lab systems freeze during compilation in cs1','Labs & Research','CL22',16,28,62,4,Network
'washroom near cl15 has not been cleaned today','Hostels','Washrooms',15,45,20,4,Cleanliness
'classroom door and several chairs need repair on floor 4','Labs & Research','A2/2',15,67,27,2,Network
'very weak wifi signal on floor 4 of lrc','Academic & Teaching','LRC',9,51,78,4,Network
'low water pressure reported around swimming pool','Hostels','Swimming Pool',15,49,63,3,Water
'classroom door and several chairs need repair on ground floor beside the canteen queue','Labs & Research','A2/2',8,59,43,3,Infrastructure
'classroom door and several chairs need repair on ground floor','Academic & Teaching','A2/1',9,61,41,4,Infrastructure
'projector in ts17 switches off after ten minutes','Academic & Teaching','A2/1',15,46,34,2,Infrastructure
'very weak wifi signal on ground floor of aryabhatt bhawan ii','Academic & Teaching','Aryabhatt Bhawan II',14,100,42,2,Network
'three lab systems freeze during compilation in cs1','Labs & Research','CL3',9,20,65,1,Lab_Equipment
'food counter is overcrowded between 13 00 and 15 00','Food','Annapurna / Main Mess',13,75,52,2,Canteen
'waiting time at annapurna / main mess is more than twenty minutes after a power interruption','Food','Annapurna / Main Mess',13,70,71,1,Canteen
'three lab systems freeze during compilation in cl15','Labs & Research','CL15',11,56,52,1,Lab_Equipment
'internet disconnects repeatedly during the lecture in g2','Labs & Research','CL3',9,54,37,2,Network
'very weak wifi signal on ground floor of cl3','Library & Study','CL3',9,100,65,1,Network
'network authentication fails for students around aryabhatt bhawan ii','Library & Study','CL15',10,63,67,5,Network
'spill outside cl22 creates a safety hazard','Hostels','Washrooms',11,60,63,3,Cleanliness
'wifi becomes extremely slow near cl15 between 10 00 and 12 00 while the wifi is also unstable','Academic & Teaching','LRC',10,100,45,1,Network
'food counter is overcrowded between 14 00 and 16 00','Food','Annapurna / Main Mess',14,80,68,2,Canteen
'washroom near cr425 has not been cleaned today','Academic & Teaching','Aryabhatt Bhawan III',12,60,57,3,Electrical
'spill outside g2 creates a safety hazard','General & Utilities','H4 Boys Hostel',8,71,86,3,Cleanliness
'water is leaking into the corridor on floor 1','Sports & Recreation','Water cooler',13,47,66,1,Water
'wifi becomes extremely slow near cl3 between 12 00 and 14 00','Library & Study','Aryabhatt Bhawan II',12,79,58,1,Network
'very weak wifi signal on floor 2 of cl3','Academic & Teaching','CL3',10,48,40,4,Network
'wifi becomes extremely slow near cr425 between 9 00 and 11 00','Labs & Research','CL3',9,70,77,1,Network
'canteen queue is very long at 14 00 with one counter open','Food','Annapurna / Main Mess',14,90,50,1,Canteen
'projector in cl22 switches off after ten minutes this happens repeatedly','Labs & Research','CL3',13,74,66,2,Infrastructure
'canteen queue is very long at 14 00 with one counter open near a water cooler','Food','Cafeteria / Canteen',14,81,43,2,Canteen
'projector hdmi port is loose in cl22 students cannot continue class','Academic & Teaching','A2/1',13,67,39,3,Infrastructure
'canteen queue is very long at 14 00 with one counter open','Food','Annapurna / Main Mess',14,54,55,2,Canteen
'two ceiling fans are not working in cl3','Labs & Research','CL22',13,80,43,4,Electrical
'three lab systems freeze during compilation in ts17','Labs & Research','ECE Labs',14,46,79,2,Lab_Equipment
'two ceiling fans are not working in cr425 beside the canteen queue','Hostels','CL22',13,67,68,3,Electrical
'spill outside cl22 creates a safety hazard','Academic & Teaching','H4 Boys Hostel',9,66,60,3,Cleanliness
'monitor and keyboard are not detected at workstation in cl22','Labs & Research','CL22',15,20,45,1,Lab_Equipment
'projector hdmi port is loose in cl3 this happens repeatedly','Academic & Teaching','Aryabhatt Bhawan II',9,62,20,5,Infrastructure
'wifi becomes extremely slow near cl15 between 10 00 and 12 00','Library & Study','CL3',10,45,57,1,Network
'projector in ts17 switches off after ten minutes','Labs & Research','CL3',16,63,53,1,Infrastructure
'internet disconnects repeatedly during the lecture in cl22','Academic & Teaching','Aryabhatt Bhawan II',14,81,79,2,Network
'drinking water cooler near cs1 is empty','Sports & Recreation','Water cooler',16,5,85,3,Water
'projector hdmi port is loose in g2','Labs & Research','Aryabhatt Bhawan II',16,78,51,3,Infrastructure
'air conditioner stops cooling after noon on floor 3 please fix urgently and the room is overcrowded','Academic & Teaching','A2/1',10,52,71,2,Electrical
'internet disconnects repeatedly during the lecture in ff6','Library & Study','CL15',11,97,20,4,Network
'wifi becomes extremely slow near cl15 between 11 00 and 13 00','Labs & Research','CL3',11,100,53,2,Network
'very weak wifi signal on floor 3 of lrc while the wifi is also unstable','Academic & Teaching','LRC',11,84,67,2,Network
'air conditioner stops cooling after noon on floor 4','Labs & Research','H5 Boys Hostel',16,66,54,5,Electrical
'internet disconnects repeatedly during the lecture in g2','Academic & Teaching','LRC',11,91,59,2,Network
'network authentication fails for students around cl15','Labs & Research','CL15',11,80,58,3,Network
'network authentication fails for students around cl15','Library & Study','CL15',11,60,44,2,Network
'drinking water cooler near cs1 is empty this happens repeatedly','Sports & Recreation','Water cooler',11,66,45,3,Water
'lights flicker repeatedly inside cl22','Labs & Research','CL22',15,57,54,2,Electrical
'projector in g2 switches off after ten minutes','Labs & Research','A2/2',12,27,59,1,Infrastructure
'waiting time at annapurna / main mess is more than twenty minutes please fix urgently','Food','Annapurna / Main Mess',12,100,70,4,Canteen
'internet disconnects repeatedly during the lecture in cr425 beside the canteen queue','Library & Study','CL15',14,57,42,1,Network
'classroom door and several chairs need repair on floor 3 students cannot continue class','Academic & Teaching','A2/1',12,63,59,3,Infrastructure
'air conditioner stops cooling after noon on floor 4','Labs & Research','CL22',12,24,86,3,Electrical
'internet disconnects repeatedly during the lecture in g2 while the wifi is also unstable','Labs & Research','Aryabhatt Bhawan II',10,100,75,3,Network
'classroom door and several chairs need repair on floor 3','Academic & Teaching','A2/1',8,84,44,4,Infrastructure
'projector in cl3 switches off after ten minutes','Academic & Teaching','A2/2',9,53,52,3,Infrastructure
'network authentication fails for students around aryabhatt bhawan ii','Academic & Teaching','Aryabhatt Bhawan II',11,52,32,4,Network
'network authentication fails for students around cl3','Academic & Teaching','CL3',14,73,57,3,Network
'internet disconnects repeatedly during the lecture in ff6','Academic & Teaching','LRC',11,77,53,2,Network
'network authentication fails for students around lrc','Labs & Research','LRC',10,93,57,2,Network
'food counter is overcrowded between 13 00 and 15 00','Food','Cafeteria / Canteen',13,73,82,3,Canteen
'drinking water cooler near cl22 is empty','Hostels','Water cooler',18,69,96,1,Water
'parking congestion blocks the entrance near parking','Administration','Parking',9,66,71,2,Other
'floor near h4 boys hostel is dirty and slippery','General & Utilities','H4 Boys Hostel',17,24,31,1,Cleanliness
'billing queue reaches the stairwell near annapurna / main mess','Food','Annapurna / Main Mess',13,99,40,2,Canteen
'billing queue reaches the stairwell near cafeteria / canteen while the wifi is also unstable','Food','Cafeteria / Canteen',12,93,39,5,Canteen
'very weak wifi signal on floor 3 of lrc','Academic & Teaching','LRC',9,79,41,3,Network
'billing queue reaches the stairwell near annapurna / main mess this happens repeatedly','Food','Annapurna / Main Mess',12,83,34,3,Canteen
'spill outside cr425 creates a safety hazard','Hostels','Aryabhatt Bhawan III',18,75,54,2,Cleanliness
'internet disconnects repeatedly during the lecture in ff6','Library & Study','CL3',10,100,31,1,Network
'projector in ff6 switches off after ten minutes','Academic & Teaching','A2/2',15,64,62,3,Infrastructure
'network authentication fails for students around lrc please fix urgently while the wifi is also unstable','Library & Study','LRC',11,100,47,3,Network
'internet disconnects repeatedly during the lecture in g2','Library & Study','Aryabhatt Bhawan II',14,61,63,2,Network
'very weak wifi signal on ground floor of cl15','Library & Study','CL15',9,58,48,3,Network
'projector hdmi port is loose in ts17 near a water cooler','Academic & Teaching','A2/1',15,44,36,2,Infrastructure
'wifi becomes extremely slow near cr425 between 10 00 and 12 00','Academic & Teaching','LRC',10,100,85,2,Network
'two ceiling fans are not working in cs1','Academic & Teaching','A2/1',11,32,50,4,Electrical
'floor near h4 boys hostel is dirty and slippery','Academic & Teaching','H4 Boys Hostel',8,49,39,3,Cleanliness
'air conditioner stops cooling after noon on ground floor','Academic & Teaching','CL22',16,69,61,3,Electrical
'wifi becomes extremely slow near cl22 between 12 00 and 14 00 students cannot continue class','Academic & Teaching','Aryabhatt Bhawan II',12,70,37,1,Network
'computer fails to boot during practical class in cl22 students cannot continue class','Labs & Research','CL1',13,43,35,2,Lab_Equipment
'billing queue reaches the stairwell near cafeteria / canteen','Food','Cafeteria / Canteen',12,100,37,5,Electrical
'washroom near cl15 has not been cleaned today','General & Utilities','H4 Boys Hostel',18,87,39,2,Cleanliness
'spill outside cl15 creates a safety hazard while the wifi is also unstable','Hostels','Aryabhatt Bhawan III',13,62,28,2,Cleanliness
'projector hdmi port is loose in ff6 after a power interruption','Academic & Teaching','A2/1',13,65,67,1,Infrastructure
'classroom door and several chairs need repair on floor 2','Labs & Research','A2/1',8,47,51,1,Infrastructure
'wifi becomes extremely slow near ff6 between 12 00 and 14 00','Labs & Research','CL3',12,92,54,3,Infrastructure
'computer fails to boot during practical class in ff6','Labs & Research','CL15',8,49,68,2,Lab_Equipment
'projector hdmi port is loose in g2 please fix urgently','Labs & Research','Aryabhatt Bhawan II',8,54,26,2,Infrastructure
'laboratory equipment reports a calibration error in cl3','Labs & Research','CL3',17,33,44,4,Lab_Equipment
'student common area is overcrowded after 15 00 this happens repeatedly while the wifi is also unstable','Administration','Auditorium',15,35,45,2,Other
'lights flicker repeatedly inside ts17','Academic & Teaching','H5 Boys Hostel',10,48,61,4,Electrical
'waiting time at annapurna / main mess is more than twenty minutes near a water cooler','Food','Annapurna / Main Mess',14,96,67,5,Canteen
'internet disconnects repeatedly during the lecture in ts17','Library & Study','CL15',12,43,75,4,Network
'waiting time at cafeteria / canteen is more than twenty minutes','Food','Cafeteria / Canteen',14,58,63,4,Canteen
'computer fails to boot during practical class in cs1','Labs & Research','CL22',13,56,77,2,Lab_Equipment
'billing queue reaches the stairwell near cafeteria / canteen','Food','Cafeteria / Canteen',14,88,34,5,Canteen
'internet disconnects repeatedly during the lecture in cr425','Labs & Research','CL15',11,95,43,4,Network
'three lab systems freeze during compilation in ff6','Labs & Research','CL1',10,53,44,1,Lab_Equipment
'air conditioner stops cooling after noon on floor 1','Hostels','H5 Boys Hostel',9,54,52,3,Electrical
'computer fails to boot during practical class in ts17','Labs & Research','ECE Labs',15,80,72,4,Lab_Equipment
'lights flicker repeatedly inside cs1 this happens repeatedly near a water cooler','Hostels','A2/1',17,52,87,4,Electrical
'computer fails to boot during practical class in cr425','Labs & Research','CL1',16,34,20,1,Lab_Equipment
'water is leaking into the corridor on floor 2 near a water cooler','General & Utilities','Water cooler',15,46,78,2,Water
'very weak wifi signal on floor 2 of cl3 and the room is overcrowded','Library & Study','CL3',12,99,46,4,Network
'broken writing desk is blocking the aisle in ff6','Academic & Teaching','A2/2',10,58,87,1,Infrastructure
'classroom door and several chairs need repair on ground floor after a power interruption','Labs & Research','Aryabhatt Bhawan II',18,76,65,4,Infrastructure
'waiting time at cafeteria / canteen is more than twenty minutes and the room is overcrowded','Food','Cafeteria / Canteen',13,90,43,2,Electrical
'canteen queue is very long at 14 00 with one counter open beside the canteen queue','Food','Cafeteria / Canteen',14,92,59,3,Canteen
'computer fails to boot during practical class in ts17','Labs & Research','CL1',12,22,22,1,Cleanliness
'water is leaking into the corridor on floor 3','Hostels','Girls Hostel',17,67,56,3,Cleanliness
'floor near h4 boys hostel is dirty and slippery','General & Utilities','H4 Boys Hostel',9,5,47,3,Cleanliness
'projector hdmi port is loose in ff6','Labs & Research','Aryabhatt Bhawan II',11,33,54,2,Infrastructure
'food counter is overcrowded between 13 00 and 15 00 after a power interruption','Food','Cafeteria / Canteen',13,60,47,3,Canteen
'projector in cl3 switches off after ten minutes while the wifi is also unstable','Academic & Teaching','Aryabhatt Bhawan II',16,69,44,3,Infrastructure
'washroom near cr425 has not been cleaned today students cannot continue class while the wifi is also unstable','Academic & Teaching','Aryabhatt Bhawan III',9,73,49,4,Cleanliness
'classroom door and several chairs need repair on ground floor please fix urgently','Academic & Teaching','A2/1',14,56,56,1,Infrastructure
'projector in cr425 switches off after ten minutes','Labs & Research','A2/1',13,50,51,3,Infrastructure
'internet disconnects repeatedly during the lecture in cs1','Library & Study','CL15',11,59,39,1,Network
'garbage is overflowing in the corridor on floor 2','Academic & Teaching','Aryabhatt Bhawan III',11,29,73,2,Cleanliness
'water point near girls hostel is not operational','General & Utilities','Water cooler',12,86,53,3,Water
'two ceiling fans are not working in ts17','Academic & Teaching','H5 Boys Hostel',8,64,65,3,Electrical
'internet disconnects repeatedly during the lecture in cl3 please fix urgently and the room is overcrowded','Library & Study','CL3',10,97,59,3,Other
'internet disconnects repeatedly during the lecture in cl22','Labs & Research','CL15',10,61,51,2,Cleanliness
'very weak wifi signal on floor 3 of aryabhatt bhawan ii','Labs & Research','Aryabhatt Bhawan II',10,75,50,3,Network
'very weak wifi signal on floor 1 of cl3','Library & Study','CL3',10,100,46,3,Network
'waiting time at cafeteria / canteen is more than twenty minutes','Food','Cafeteria / Canteen',14,79,81,2,Canteen
'monitor and keyboard are not detected at workstation in cl22','Labs & Research','CL3',18,56,57,2,Lab_Equipment
'garbage is overflowing in the corridor on floor 4','Hostels','Aryabhatt Bhawan III',8,84,50,4,Cleanliness
'three lab systems freeze during compilation in cl22','Labs & Research','ECE Labs',8,76,37,1,Lab_Equipment
'canteen queue is very long at 12 00 with one counter open','Food','Cafeteria / Canteen',12,94,58,3,Canteen
'projector hdmi port is loose in g2','Labs & Research','CL3',11,79,59,2,Infrastructure
'water is leaking into the corridor on ground floor','Sports & Recreation','Water cooler',12,29,96,2,Water
'projector in cs1 switches off after ten minutes','Academic & Teaching','A2/1',17,25,54,2,Infrastructure
'projector in cl15 switches off after ten minutes','Labs & Research','A2/2',14,41,42,3,Infrastructure
'floor near h4 boys hostel is dirty and slippery beside the canteen queue','Hostels','H4 Boys Hostel',12,31,39,2,Cleanliness
'broken writing desk is blocking the aisle in cl22 students cannot continue class','Academic & Teaching','A2/2',14,57,77,5,Infrastructure
'floor near aryabhatt bhawan iii is dirty and slippery','Hostels','Aryabhatt Bhawan III',10,54,52,2,Cleanliness
'computer fails to boot during practical class in cl3 please fix urgently beside the canteen queue','Labs & Research','CL3',11,54,82,2,Lab_Equipment
'internet disconnects repeatedly during the lecture in g2','Library & Study','LRC',11,69,51,4,Network
'canteen queue is very long at 14 00 with one counter open','Food','Cafeteria / Canteen',14,68,54,3,Canteen
'internet disconnects repeatedly during the lecture in ts17','Labs & Research','Aryabhatt Bhawan II',11,73,37,3,Network
'lights flicker repeatedly inside cs1','Hostels','H5 Boys Hostel',16,51,51,1,Lab_Equipment
'floor near aryabhatt bhawan iii is dirty and slippery near a water cooler','Hostels','Aryabhatt Bhawan III',11,35,50,4,Lab_Equipment
'classroom door and several chairs need repair on floor 3','Labs & Research','Aryabhatt Bhawan II',15,47,68,3,Infrastructure
'spill outside ff6 creates a safety hazard','Hostels','H4 Boys Hostel',17,60,51,3,Cleanliness
'very weak wifi signal on floor 1 of cl3','Library & Study','CL3',14,88,71,5,Network
'student common area is overcrowded after 16 00','General & Utilities','Parking',16,63,48,1,Other
'classroom door and several chairs need repair on floor 1','Labs & Research','CL3',17,36,70,3,Infrastructure
'air conditioner stops cooling after noon on floor 4 please fix urgently','Academic & Teaching','A2/1',15,65,51,1,Electrical
'very weak wifi signal on floor 1 of aryabhatt bhawan ii','Library & Study','Aryabhatt Bhawan II',9,88,52,5,Network
'classroom door and several chairs need repair on floor 1','Academic & Teaching','A2/1',13,63,53,2,Infrastructure
'garbage is overflowing in the corridor on floor 4','Hostels','Washrooms',15,83,73,4,Cleanliness
'drinking water cooler near ff6 is empty','Hostels','Swimming Pool',15,55,79,1,Water
'parking congestion blocks the entrance near parking near a water cooler','Sports & Recreation','Parking',15,28,68,2,Other
'laboratory equipment reports a calibration error in cl22','Labs & Research','CL1',14,46,65,2,Electrical
'broken writing desk is blocking the aisle in ff6 students cannot continue class','Labs & Research','A2/2',9,48,55,3,Infrastructure
'internet disconnects repeatedly during the lecture in cl15','Academic & Teaching','LRC',11,61,66,2,Network
'canteen queue is very long at 14 00 with one counter open','Food','Cafeteria / Canteen',14,85,46,3,Canteen
'projector in cl15 switches off after ten minutes students cannot continue class','Labs & Research','Aryabhatt Bhawan II',14,16,81,2,Infrastructure
'internet disconnects repeatedly during the lecture in cr425','Labs & Research','CL15',12,63,70,1,Network
'canteen queue is very long at 13 00 with one counter open this happens repeatedly','Food','Cafeteria / Canteen',13,58,34,1,Canteen
'laboratory equipment reports a calibration error in cl22 please fix urgently','Labs & Research','CL22',16,41,73,1,Lab_Equipment
'internet disconnects repeatedly during the lecture in cl15','Academic & Teaching','CL3',11,63,67,3,Network
'network authentication fails for students around aryabhatt bhawan ii','Library & Study','Aryabhatt Bhawan II',12,63,41,2,Network
'canteen queue is very long at 13 00 with one counter open','Food','Cafeteria / Canteen',13,73,88,2,Canteen
'low water pressure reported around water cooler please fix urgently','General & Utilities','Water cooler',8,39,59,3,Water
'water is leaking into the corridor on ground floor','General & Utilities','Swimming Pool',8,62,63,2,Water
'food counter is overcrowded between 14 00 and 16 00','Food','Cafeteria / Canteen',14,89,64,1,Canteen
'classroom door and several chairs need repair on ground floor','Academic & Teaching','A2/2',13,55,62,4,Infrastructure
'low water pressure reported around water cooler','Hostels','Water cooler',8,47,48,4,Water
'broken writing desk is blocking the aisle in cl22','Labs & Research','CL3',16,65,46,4,Infrastructure
'billing queue reaches the stairwell near cafeteria / canteen','Food','Cafeteria / Canteen',13,61,61,3,Canteen
'network authentication fails for students around cl15','Library & Study','CL15',12,76,36,4,Network
'three lab systems freeze during compilation in g2','Labs & Research','ECE Labs',14,37,20,2,Lab_Equipment
'very weak wifi signal on floor 4 of cl15','Labs & Research','CL15',12,56,20,1,Network
'canteen queue is very long at 12 00 with one counter open','Food','Annapurna / Main Mess',12,91,71,3,Canteen
'internet disconnects repeatedly during the lecture in g2','Academic & Teaching','Aryabhatt Bhawan II',14,87,45,4,Network
'waiting time at cafeteria / canteen is more than twenty minutes near a water cooler','Food','Cafeteria / Canteen',14,70,74,4,Canteen
'network authentication fails for students around cl15 while the wifi is also unstable','Labs & Research','CL15',12,75,43,2,Network
'wifi becomes extremely slow near cs1 between 9 00 and 11 00 students cannot continue class','Library & Study','CL15',9,63,35,4,Network
'classroom door and several chairs need repair on ground floor','Academic & Teaching','A2/1',12,41,66,4,Infrastructure
'classroom door and several chairs need repair on floor 2 while the wifi is also unstable','Labs & Research','A2/2',17,19,36,3,Infrastructure
'internet disconnects repeatedly during the lecture in cl3','Academic & Teaching','Aryabhatt Bhawan II',14,100,59,1,Network
'projector hdmi port is loose in ts17','Labs & Research','CL3',16,54,51,2,Infrastructure
'very weak wifi signal on floor 3 of cl15','Academic & Teaching','CL15',11,78,55,5,Network
'washroom near cl22 has not been cleaned today','Academic & Teaching','Aryabhatt Bhawan III',13,66,75,3,Cleanliness
'washroom near cl22 has not been cleaned today students cannot continue class','Academic & Teaching','Aryabhatt Bhawan III',8,99,51,3,Cleanliness
'billing queue reaches the stairwell near cafeteria / canteen','Food','Cafeteria / Canteen',13,68,59,3,Canteen
'classroom door and several chairs need repair on ground floor near a water cooler','Academic & Teaching','CL3',11,79,37,5,Infrastructure
'projector hdmi port is loose in cl3 students cannot continue class','Academic & Teaching','A2/1',13,78,54,2,Infrastructure
'very weak wifi signal on floor 2 of aryabhatt bhawan ii','Library & Study','Aryabhatt Bhawan II',10,84,57,3,Network
'very weak wifi signal on floor 1 of cl15 please fix urgently','Labs & Research','CL15',11,66,47,2,Network
'monitor and keyboard are not detected at workstation in cr425','Labs & Research','CL1',11,63,68,2,Lab_Equipment
'broken writing desk is blocking the aisle in cl22','Labs & Research','A2/1',14,100,43,3,Infrastructure
'spill outside cs1 creates a safety hazard and the room is overcrowded','Academic & Teaching','Aryabhatt Bhawan III',12,69,72,3,Cleanliness
'projector hdmi port is loose in cl22','Labs & Research','A2/2',13,38,79,1,Infrastructure
'air conditioner stops cooling after noon on floor 3 while the wifi is also unstable','Labs & Research','A2/1',15,38,73,3,Electrical
'wifi becomes extremely slow near cl3 between 9 00 and 11 00','Library & Study','Aryabhatt Bhawan II',9,84,59,2,Network
'laboratory equipment reports a calibration error in ff6','Labs & Research','CL22',9,52,66,1,Lab_Equipment
'projector in g2 switches off after ten minutes this happens repeatedly while the wifi is also unstable','Labs & Research','Aryabhatt Bhawan II',13,66,47,1,Infrastructure
'floor near h4 boys hostel is dirty and slippery','Academic & Teaching','H4 Boys Hostel',17,36,42,2,Cleanliness
'waiting time at cafeteria / canteen is more than twenty minutes','Food','Cafeteria / Canteen',13,100,43,2,Canteen
'two ceiling fans are not working in cl3','Labs & Research','A2/1',16,23,66,4,Other
'three lab systems freeze during compilation in g2 this happens repeatedly','Labs & Research','CL3',16,72,35,3,Lab_Equipment
'three lab systems freeze during compilation in cl22 students cannot continue class','Labs & Research','CL1',10,71,66,2,Lab_Equipment
'wifi becomes extremely slow near cl22 between 12 00 and 14 00','Academic & Teaching','LRC',12,100,56,2,Network
'billing queue reaches the stairwell near annapurna / main mess','Food','Annapurna / Main Mess',14,99,60,4,Canteen
'broken writing desk is blocking the aisle in cr425 this happens repeatedly','Labs & Research','A2/2',11,43,27,4,Infrastructure
'classroom door and several chairs need repair on ground floor','Labs & Research','CL3',12,64,56,3,Infrastructure
'monitor and keyboard are not detected at workstation in cl22','Labs & Research','CL22',14,48,80,1,Lab_Equipment
'low water pressure reported around swimming pool','General & Utilities','Swimming Pool',9,66,87,3,Water
'classroom door and several chairs need repair on floor 4','Labs & Research','CL3',12,72,64,3,Infrastructure
'monitor and keyboard are not detected at workstation in ff6','Labs & Research','CL3',10,48,32,3,Lab_Equipment
'monitor and keyboard are not detected at workstation in cr425 while the wifi is also unstable','Labs & Research','CL1',11,79,76,2,Lab_Equipment
'signage is missing for g2 on floor 4','Administration','Administration Block',8,50,25,2,Other
'projector hdmi port is loose in cs1','Labs & Research','Aryabhatt Bhawan II',18,44,20,3,Infrastructure
'very weak wifi signal on ground floor of cl15','Labs & Research','CL15',10,78,46,2,Network
'monitor and keyboard are not detected at workstation in cr425','Labs & Research','ECE Labs',16,62,67,2,Lab_Equipment
'canteen queue is very long at 12 00 with one counter open and the room is overcrowded','Food','Annapurna / Main Mess',12,100,66,2,Canteen
'washroom near cl15 has not been cleaned today and the room is overcrowded','General & Utilities','Washrooms',16,62,56,4,Cleanliness
'network authentication fails for students around cl15','Labs & Research','CL15',10,99,57,2,Network
'projector hdmi port is loose in ff6','Labs & Research','A2/2',8,25,58,2,Infrastructure
'drinking water cooler near g2 is empty','Hostels','Girls Hostel',16,52,47,3,Water
'projector hdmi port is loose in ts17','Academic & Teaching','A2/2',15,58,59,2,Infrastructure
'wifi becomes extremely slow near cl15 between 11 00 and 13 00 this happens repeatedly','Labs & Research','CL15',11,59,58,2,Network
'garbage is overflowing in the corridor on floor 1 students cannot continue class beside the canteen queue','Hostels','Washrooms',16,46,43,2,Lab_Equipment
'projector in cs1 switches off after ten minutes while the wifi is also unstable','Academic & Teaching','CL3',13,60,52,1,Infrastructure
'three lab systems freeze during compilation in ff6 please fix urgently','Labs & Research','CL15',12,37,73,4,Lab_Equipment
'monitor and keyboard are not detected at workstation in cr425 beside the canteen queue','Labs & Research','CL22',16,70,36,2,Lab_Equipment
'projector in cs1 switches off after ten minutes beside the canteen queue','Labs & Research','A2/1',18,74,45,1,Infrastructure
'low water pressure reported around girls hostel students cannot continue class','Hostels','Girls Hostel',13,21,87,1,Water
'washroom near cs1 has not been cleaned today','Hostels','Aryabhatt Bhawan III',17,68,89,2,Cleanliness
'spill outside cl22 creates a safety hazard','General & Utilities','Washrooms',8,23,24,4,Cleanliness
'internet disconnects repeatedly during the lecture in cl15 beside the canteen queue','Library & Study','CL15',10,81,59,2,Network
'very weak wifi signal on floor 4 of aryabhatt bhawan ii','Labs & Research','Aryabhatt Bhawan II',10,100,73,2,Network
'network authentication fails for students around aryabhatt bhawan ii','Academic & Teaching','Aryabhatt Bhawan II',11,55,96,3,Network
'projector hdmi port is loose in g2','Academic & Teaching','A2/2',17,44,67,3,Infrastructure
'wifi becomes extremely slow near cl22 between 14 00 and 16 00','Academic & Teaching','CL15',14,78,37,2,Network
'broken writing desk is blocking the aisle in ff6','Labs & Research','Aryabhatt Bhawan II',12,62,26,4,Infrastructure
'water is leaking into the corridor on floor 1 after a power interruption','General & Utilities','Swimming Pool',8,74,96,4,Water
'network authentication fails for students around cl3','Library & Study','CL3',10,86,61,2,Network
'air conditioner stops cooling after noon on floor 3 near a water cooler','Hostels','A2/1',12,65,35,5,Electrical
'laboratory equipment reports a calibration error in cl3','Labs & Research','CL15',13,91,35,3,Lab_Equipment
'wifi becomes extremely slow near cs1 between 10 00 and 12 00','Library & Study','CL15',10,95,45,3,Infrastructure
'wifi becomes extremely slow near cl3 between 10 00 and 12 00 beside the canteen queue','Labs & Research','CL15',10,67,43,4,Network
'washroom near cl3 has not been cleaned today','Academic & Teaching','Aryabhatt Bhawan III',17,78,75,2,Cleanliness
'spill outside cs1 creates a safety hazard','Academic & Teaching','Washrooms',8,44,75,3,Cleanliness
'washroom near cl22 has not been cleaned today after a power interruption','General & Utilities','H4 Boys Hostel',10,53,27,1,Cleanliness
'low water pressure reported around girls hostel','General & Utilities','Girls Hostel',16,61,71,3,Network
'monitor and keyboard are not detected at workstation in ts17','Labs & Research','CL1',12,12,43,1,Lab_Equipment
'water point near swimming pool is not operational','Hostels','Swimming Pool',13,73,69,2,Water
'student common area is overcrowded after 13 00 after a power interruption','General & Utilities','Auditorium',13,52,47,2,Other
'broken writing desk is blocking the aisle in ff6 students cannot continue class','Labs & Research','CL3',16,53,41,1,Infrastructure
'two ceiling fans are not working in g2','Labs & Research','CL22',16,74,82,2,Electrical
'spill outside cl3 creates a safety hazard','General & Utilities','Aryabhatt Bhawan III',17,37,36,4,Cleanliness
'washroom near cl3 has not been cleaned today','Academic & Teaching','Washrooms',8,67,83,1,Cleanliness
'broken writing desk is blocking the aisle in cr425 after a power interruption','Labs & Research','CL3',16,44,67,2,Infrastructure
'wifi becomes extremely slow near cr425 between 12 00 and 14 00','Library & Study','CL15',12,89,39,4,Cleanliness
'laboratory equipment reports a calibration error in cl3 after a power interruption','Labs & Research','CL1',10,54,71,2,Lab_Equipment
'projector in cs1 switches off after ten minutes while the wifi is also unstable','Labs & Research','Aryabhatt Bhawan II',9,49,41,1,Infrastructure
'network authentication fails for students around aryabhatt bhawan ii','Library & Study','Aryabhatt Bhawan II',12,75,57,1,Network
'billing queue reaches the stairwell near cafeteria / canteen','Food','Cafeteria / Canteen',13,100,50,2,Canteen
'canteen queue is very long at 13 00 with one counter open please fix urgently','Food','Annapurna / Main Mess',13,66,61,3,Canteen
'water is leaking into the corridor on floor 1 students cannot continue class','Hostels','Swimming Pool',13,63,75,3,Water
'broken writing desk is blocking the aisle in ff6','Labs & Research','A2/1',9,54,66,3,Infrastructure
'drinking water cooler near cs1 is empty','Hostels','Girls Hostel',10,72,65,1,Water
'projector in ts17 switches off after ten minutes','Labs & Research','A2/2',17,68,54,4,Infrastructure
'waiting time at annapurna / main mess is more than twenty minutes','Food','Annapurna / Main Mess',13,61,34,2,Canteen
'classroom door and several chairs need repair on floor 2 and the room is overcrowded','Academic & Teaching','CL3',10,50,64,1,Infrastructure
'internet disconnects repeatedly during the lecture in ff6','Academic & Teaching','CL15',12,48,58,1,Network
'food counter is overcrowded between 13 00 and 15 00 please fix urgently','Food','Cafeteria / Canteen',13,85,36,1,Canteen
'computer fails to boot during practical class in cl15 students cannot continue class','Labs & Research','CL22',18,48,60,1,Lab_Equipment
'two ceiling fans are not working in cl22','Hostels','A2/1',11,45,45,4,Electrical
'monitor and keyboard are not detected at workstation in cl15','Labs & Research','CL3',14,59,28,2,Lab_Equipment
'projector hdmi port is loose in cs1','Labs & Research','CL3',18,73,57,3,Infrastructure
'very weak wifi signal on ground floor of cl15','Academic & Teaching','CL15',9,92,48,2,Network
'broken writing desk is blocking the aisle in g2 near a water cooler','Labs & Research','A2/2',14,50,75,3,Infrastructure
'billing queue reaches the stairwell near annapurna / main mess','Food','Annapurna / Main Mess',13,94,20,4,Canteen
'washroom near cl3 has not been cleaned today','General & Utilities','H4 Boys Hostel',13,32,85,5,Cleanliness
'wifi becomes extremely slow near cl3 between 12 00 and 14 00','Library & Study','CL3',12,91,37,3,Network
'internet disconnects repeatedly during the lecture in cl3 and the room is overcrowded','Library & Study','CL3',14,92,36,1,Network
'canteen queue is very long at 13 00 with one counter open','Food','Annapurna / Main Mess',13,98,48,5,Canteen
'water is leaking into the corridor on floor 3','Sports & Recreation','Girls Hostel',17,49,74,3,Water
'internet disconnects repeatedly during the lecture in ff6 after a power interruption','Library & Study','CL3',10,67,32,3,Network
'water is leaking into the corridor on floor 2','General & Utilities','Water cooler',16,49,77,2,Water
'two ceiling fans are not working in cl22 near a water cooler','Academic & Teaching','H5 Boys Hostel',11,36,88,4,Electrical
'air conditioner stops cooling after noon on floor 4','Hostels','H5 Boys Hostel',11,40,81,3,Electrical
'network authentication fails for students around cl15','Labs & Research','CL15',9,56,66,2,Network
'network authentication fails for students around cl3 near a water cooler','Library & Study','CL3',9,74,65,4,Network
'network authentication fails for students around aryabhatt bhawan ii','Library & Study','Aryabhatt Bhawan II',9,63,76,2,Network
'washroom near ts17 has not been cleaned today this happens repeatedly','Academic & Teaching','Aryabhatt Bhawan III',15,50,64,1,Cleanliness
'very weak wifi signal on floor 1 of lrc','Library & Study','LRC',9,55,54,1,Other
'garbage is overflowing in the corridor on floor 3','Academic & Teaching','H4 Boys Hostel',11,71,70,1,Cleanliness
'floor near washrooms is dirty and slippery','General & Utilities','Washrooms',8,36,45,3,Cleanliness
'student common area is overcrowded after 17 00','Sports & Recreation','Main Gate',17,64,87,2,Other
'projector in cl3 switches off after ten minutes','Labs & Research','Aryabhatt Bhawan II',18,33,35,2,Infrastructure
'monitor and keyboard are not detected at workstation in ts17','Labs & Research','CL15',17,52,79,3,Lab_Equipment
'air conditioner stops cooling after noon on floor 2','Hostels','A2/1',11,25,57,3,Electrical
'power socket near the desk is unsafe in ff6','Academic & Teaching','CL22',8,53,79,3,Electrical
'waiting time at annapurna / main mess is more than twenty minutes beside the canteen queue','Food','Annapurna / Main Mess',12,100,76,2,Canteen
'projector in ff6 switches off after ten minutes','Academic & Teaching','CL3',17,39,68,2,Infrastructure
'water point near swimming pool is not operational','Sports & Recreation','Swimming Pool',15,70,90,5,Water
'internet disconnects repeatedly during the lecture in ts17 beside the canteen queue','Academic & Teaching','Aryabhatt Bhawan II',9,94,47,1,Network
'spill outside cl15 creates a safety hazard','General & Utilities','Washrooms',8,69,76,3,Infrastructure
'projector in ff6 switches off after ten minutes','Academic & Teaching','CL3',15,27,57,3,Infrastructure
'spill outside cl22 creates a safety hazard','Academic & Teaching','Washrooms',13,26,54,1,Cleanliness
'wifi becomes extremely slow near cs1 between 11 00 and 13 00 students cannot continue class and the room is overcrowded','Academic & Teaching','LRC',11,43,23,1,Infrastructure
'garbage is overflowing in the corridor on floor 4','Academic & Teaching','Washrooms',12,49,55,2,Cleanliness
'projector in cl3 switches off after ten minutes','Academic & Teaching','A2/2',10,85,76,1,Infrastructure
'three lab systems freeze during compilation in ts17','Labs & Research','CL22',16,64,30,3,Lab_Equipment
'wifi becomes extremely slow near cs1 between 10 00 and 12 00','Labs & Research','Aryabhatt Bhawan II',10,59,64,3,Network
'classroom door and several chairs need repair on floor 2 students cannot continue class','Academic & Teaching','A2/1',9,75,77,2,Infrastructure
'food counter is overcrowded between 14 00 and 16 00 after a power interruption','Food','Annapurna / Main Mess',14,63,74,5,Canteen
'classroom door and several chairs need repair on floor 3','Labs & Research','A2/2',16,73,43,5,Infrastructure
'broken writing desk is blocking the aisle in g2 this happens repeatedly','Academic & Teaching','Aryabhatt Bhawan II',11,86,26,5,Infrastructure
'two ceiling fans are not working in cs1','Hostels','H5 Boys Hostel',9,53,96,3,Electrical
'canteen queue is very long at 13 00 with one counter open','Food','Annapurna / Main Mess',13,80,54,2,Canteen
'air conditioner stops cooling after noon on floor 1','Labs & Research','CL22',13,53,57,3,Electrical
'garbage is overflowing in the corridor on floor 4','Academic & Teaching','Washrooms',16,30,26,3,Cleanliness
'garbage is overflowing in the corridor on ground floor','General & Utilities','H4 Boys Hostel',12,88,39,4,Lab_Equipment
'air conditioner stops cooling after noon on ground floor please fix urgently while the wifi is also unstable','Academic & Teaching','A2/1',16,32,64,4,Electrical
'network authentication fails for students around cl3 and the room is overcrowded','Academic & Teaching','CL3',12,80,43,1,Network
'air conditioner stops cooling after noon on floor 1','Academic & Teaching','H5 Boys Hostel',9,20,20,2,Electrical
'broken writing desk is blocking the aisle in cl3','Labs & Research','A2/1',18,86,54,3,Infrastructure
'laboratory equipment reports a calibration error in cl22','Labs & Research','ECE Labs',13,63,57,5,Lab_Equipment
'network authentication fails for students around cl3','Library & Study','CL3',10,69,76,4,Network
'broken writing desk is blocking the aisle in g2 after a power interruption','Labs & Research','A2/1',12,53,52,2,Infrastructure
'classroom door and several chairs need repair on floor 3','Labs & Research','CL3',16,35,82,4,Infrastructure
'canteen queue is very long at 13 00 with one counter open','Food','Annapurna / Main Mess',13,94,47,3,Canteen
'very weak wifi signal on floor 1 of aryabhatt bhawan ii','Library & Study','Aryabhatt Bhawan II',9,54,21,1,Network
'waiting time at cafeteria / canteen is more than twenty minutes','Food','Cafeteria / Canteen',12,100,41,4,Canteen
'canteen queue is very long at 14 00 with one counter open this happens repeatedly while the wifi is also unstable','Food','Annapurna / Main Mess',14,58,45,2,Canteen
'canteen queue is very long at 14 00 with one counter open','Food','Cafeteria / Canteen',14,78,69,5,Canteen
'computer fails to boot during practical class in cl3','Labs & Research','CL15',14,57,38,4,Lab_Equipment
'very weak wifi signal on floor 2 of aryabhatt bhawan ii','Labs & Research','Aryabhatt Bhawan II',9,63,70,4,Network
'garbage is overflowing in the corridor on floor 2','Hostels','H4 Boys Hostel',15,55,76,3,Cleanliness
'projector in cl22 switches off after ten minutes','Academic & Teaching','A2/1',16,48,46,3,Infrastructure
'garbage is overflowing in the corridor on ground floor','Academic & Teaching','H4 Boys Hostel',14,28,66,3,Cleanliness
'classroom door and several chairs need repair on floor 1','Academic & Teaching','CL3',10,48,36,1,Infrastructure
'water is leaking into the corridor on ground floor','Sports & Recreation','Girls Hostel',12,75,87,4,Network
'water point near water cooler is not operational','General & Utilities','Water cooler',13,35,85,3,Water
'computer fails to boot during practical class in cl15','Labs & Research','CL1',10,78,38,3,Lab_Equipment
'projector hdmi port is loose in ff6 please fix urgently near a water cooler','Labs & Research','A2/2',18,73,31,2,Infrastructure
'internet disconnects repeatedly during the lecture in cl15','Labs & Research','Aryabhatt Bhawan II',9,33,71,3,Network
'broken writing desk is blocking the aisle in cs1','Academic & Teaching','A2/1',14,61,24,3,Infrastructure
'two ceiling fans are not working in cr425','Hostels','CL22',18,70,71,2,Electrical
'laboratory equipment reports a calibration error in cs1 this happens repeatedly','Labs & Research','CL1',12,64,41,3,Lab_Equipment
'very weak wifi signal on floor 1 of cl3 and the room is overcrowded','Academic & Teaching','CL3',14,48,66,5,Network
'wifi becomes extremely slow near ff6 between 12 00 and 14 00 students cannot continue class beside the canteen queue','Academic & Teaching','CL3',12,100,73,1,Infrastructure
'two ceiling fans are not working in cl15','Hostels','CL22',13,47,65,5,Electrical
'power socket near the desk is unsafe in cr425','Hostels','A2/1',9,37,58,3,Electrical
'waiting time at cafeteria / canteen is more than twenty minutes students cannot continue class','Food','Cafeteria / Canteen',13,96,60,3,Canteen
'internet disconnects repeatedly during the lecture in ts17','Library & Study','LRC',14,17,47,4,Network
'garbage is overflowing in the corridor on floor 4','Hostels','H4 Boys Hostel',13,54,29,3,Cleanliness
'air conditioner stops cooling after noon on floor 3','Labs & Research','H5 Boys Hostel',9,77,60,4,Electrical
'power socket near the desk is unsafe in ts17 after a power interruption','Labs & Research','CL22',14,23,66,1,Other
'monitor and keyboard are not detected at workstation in cs1 this happens repeatedly','Labs & Research','CL1',16,85,55,3,Lab_Equipment
'water point near girls hostel is not operational','General & Utilities','Girls Hostel',18,72,24,4,Water
'wifi becomes extremely slow near g2 between 9 00 and 11 00','Library & Study','LRC',9,70,55,1,Network
'spill outside cl22 creates a safety hazard beside the canteen queue','General & Utilities','Aryabhatt Bhawan III',14,39,40,2,Cleanliness
'wifi becomes extremely slow near g2 between 11 00 and 13 00 while the wifi is also unstable','Academic & Teaching','CL15',11,87,56,3,Network
'projector hdmi port is loose in ts17','Labs & Research','A2/2',15,50,63,3,Infrastructure
'very weak wifi signal on floor 2 of cl15 students cannot continue class after a power interruption','Library & Study','CL15',14,66,46,3,Infrastructure
'food counter is overcrowded between 13 00 and 15 00 please fix urgently','Food','Annapurna / Main Mess',13,55,60,4,Canteen
'floor near washrooms is dirty and slippery while the wifi is also unstable','Hostels','Washrooms',10,39,38,4,Network
'air conditioner stops cooling after noon on floor 2','Academic & Teaching','A2/1',12,62,76,2,Electrical
'network authentication fails for students around cl3','Academic & Teaching','CL3',11,100,75,2,Network
'unclassified campus issue reported around administration block','General & Utilities','Administration Block',13,65,70,5,Other
'internet disconnects repeatedly during the lecture in cr425','Labs & Research','Aryabhatt Bhawan II',10,57,53,4,Network
'classroom door and several chairs need repair on floor 2','Labs & Research','A2/1',13,60,37,4,Infrastructure
'drinking water cooler near cl15 is empty','Sports & Recreation','Swimming Pool',8,22,55,5,Water
'projector hdmi port is loose in cl22','Labs & Research','A2/1',9,66,79,2,Infrastructure
'floor near washrooms is dirty and slippery','Academic & Teaching','Washrooms',18,41,61,3,Cleanliness
'network authentication fails for students around cl15','Labs & Research','CL15',14,70,73,2,Network
'internet disconnects repeatedly during the lecture in ts17','Academic & Teaching','CL3',10,100,45,3,Network
'floor near washrooms is dirty and slippery','Academic & Teaching','Washrooms',8,54,64,3,Cleanliness
'network authentication fails for students around aryabhatt bhawan ii','Library & Study','Aryabhatt Bhawan II',10,77,65,4,Network
'broken writing desk is blocking the aisle in ts17','Academic & Teaching','Aryabhatt Bhawan II',12,45,33,2,Infrastructure
'waiting time at cafeteria / canteen is more than twenty minutes','Food','Cafeteria / Canteen',13,59,55,3,Canteen
'air conditioner stops cooling after noon on floor 1 after a power interruption','Academic & Teaching','A2/1',13,68,52,3,Electrical
'power socket near the desk is unsafe in g2','Labs & Research','CL22',17,59,62,4,Electrical
'food counter is overcrowded between 13 00 and 15 00','Food','Annapurna / Main Mess',13,100,44,3,Canteen
'computer fails to boot during practical class in cr425 please fix urgently after a power interruption','Labs & Research','CL22',15,66,44,1,Lab_Equipment
'very weak wifi signal on ground floor of lrc','Academic & Teaching','LRC',12,66,20,2,Network
'three lab systems freeze during compilation in cl22','Labs & Research','CL1',12,61,31,2,Lab_Equipment
'food counter is overcrowded between 14 00 and 16 00 near a water cooler','Food','Cafeteria / Canteen',14,80,48,1,Canteen
'drinking water cooler near cs1 is empty','Hostels','Swimming Pool',9,48,64,2,Water
'projector in cl3 switches off after ten minutes','Labs & Research','CL3',11,53,30,4,Infrastructure
'wifi becomes extremely slow near cs1 between 14 00 and 16 00','Labs & Research','Aryabhatt Bhawan II',14,58,53,3,Network
'garbage is overflowing in the corridor on floor 2 students cannot continue class','Hostels','H4 Boys Hostel',8,44,55,5,Cleanliness
'wifi becomes extremely slow near ff6 between 10 00 and 12 00','Labs & Research','CL15',10,87,46,3,Network
'network authentication fails for students around cl15 near a water cooler','Academic & Teaching','CL15',11,69,69,3,Network
'laboratory equipment reports a calibration error in cl3','Labs & Research','CL15',17,41,40,1,Lab_Equipment
'lights flicker repeatedly inside cr425 near a water cooler','Labs & Research','CL22',9,46,42,1,Electrical
'two ceiling fans are not working in cl15','Labs & Research','H5 Boys Hostel',14,46,82,2,Electrical
'water is leaking into the corridor on floor 1 beside the canteen queue','Hostels','Water cooler',14,58,42,4,Water
'very weak wifi signal on floor 1 of cl15','Library & Study','CL15',11,59,77,2,Network
'canteen queue is very long at 12 00 with one counter open','Food','Cafeteria / Canteen',12,62,33,2,Canteen
'internet disconnects repeatedly during the lecture in g2 after a power interruption','Labs & Research','CL3',10,58,48,2,Network
'projector in ff6 switches off after ten minutes while the wifi is also unstable','Academic & Teaching','A2/2',10,50,46,4,Infrastructure
'wifi becomes extremely slow near cl15 between 14 00 and 16 00','Academic & Teaching','CL15',14,95,25,1,Network
'water point near water cooler is not operational','Sports & Recreation','Water cooler',13,71,72,4,Water
'network authentication fails for students around aryabhatt bhawan ii','Library & Study','Aryabhatt Bhawan II',14,59,50,2,Network
'water is leaking into the corridor on ground floor','General & Utilities','Girls Hostel',14,80,82,3,Water
'monitor and keyboard are not detected at workstation in g2','Labs & Research','CL3',8,22,20,2,Lab_Equipment
'broken writing desk is blocking the aisle in cl22 students cannot continue class','Labs & Research','CL3',14,57,68,1,Infrastructure
'wifi becomes extremely slow near ff6 between 12 00 and 14 00','Labs & Research','LRC',12,94,49,3,Network
'monitor and keyboard are not detected at workstation in cl3','Labs & Research','CL15',16,53,44,1,Lab_Equipment
'wifi becomes extremely slow near ff6 between 12 00 and 14 00 near a water cooler','Labs & Research','Aryabhatt Bhawan II',12,94,60,1,Network
'very weak wifi signal on floor 3 of aryabhatt bhawan ii while the wifi is also unstable','Library & Study','Aryabhatt Bhawan II',10,82,63,3,Network
'low water pressure reported around girls hostel','Sports & Recreation','Girls Hostel',10,69,93,4,Water
'billing queue reaches the stairwell near annapurna / main mess','Food','Annapurna / Main Mess',13,65,81,5,Canteen
'food counter is overcrowded between 14 00 and 16 00','Food','Annapurna / Main Mess',14,71,20,2,Canteen
'broken writing desk is blocking the aisle in cl3','Academic & Teaching','Aryabhatt Bhawan II',18,46,54,1,Infrastructure
'student common area is overcrowded after 9 00','Administration','Main Gate',9,64,52,5,Other
'floor near aryabhatt bhawan iii is dirty and slippery and the room is overcrowded','General & Utilities','Aryabhatt Bhawan III',15,47,61,5,Cleanliness
'low water pressure reported around water cooler','General & Utilities','Water cooler',15,44,71,3,Water
'three lab systems freeze during compilation in cs1 please fix urgently','Labs & Research','CL15',13,41,56,3,Lab_Equipment
'network authentication fails for students around cl15','Library & Study','CL15',10,88,54,4,Network
'network authentication fails for students around cl15','Academic & Teaching','CL15',9,83,62,3,Network
'drinking water cooler near cl3 is empty','General & Utilities','Water cooler',12,27,57,3,Water
'computer fails to boot during practical class in ff6','Labs & Research','CL1',11,38,71,3,Lab_Equipment
'canteen queue is very long at 12 00 with one counter open','Food','Annapurna / Main Mess',12,58,90,5,Canteen
'monitor and keyboard are not detected at workstation in ff6 beside the canteen queue','Labs & Research','CL3',14,64,46,4,Lab_Equipment
'projector hdmi port is loose in ff6 while the wifi is also unstable','Labs & Research','CL3',12,80,57,2,Infrastructure
'power socket near the desk is unsafe in g2','Hostels','CL22',11,56,75,2,Electrical
'spill outside cl22 creates a safety hazard near a water cooler','General & Utilities','Aryabhatt Bhawan III',14,71,45,3,Cleanliness
'projector hdmi port is loose in ts17','Labs & Research','Aryabhatt Bhawan II',9,74,52,3,Infrastructure
'low water pressure reported around girls hostel','Hostels','Girls Hostel',9,56,72,2,Water
'classroom door and several chairs need repair on floor 1 beside the canteen queue','Labs & Research','CL3',17,69,43,4,Infrastructure
'projector in cl15 switches off after ten minutes after a power interruption','Labs & Research','A2/2',14,37,47,2,Cleanliness
'billing queue reaches the stairwell near cafeteria / canteen','Food','Cafeteria / Canteen',14,74,41,3,Canteen
'wifi becomes extremely slow near ff6 between 10 00 and 12 00 please fix urgently','Academic & Teaching','CL3',10,70,64,5,Network
'three lab systems freeze during compilation in cl3 near a water cooler','Labs & Research','CL22',15,64,47,1,Lab_Equipment
'very weak wifi signal on floor 3 of aryabhatt bhawan ii','Labs & Research','Aryabhatt Bhawan II',12,77,68,5,Network
'very weak wifi signal on floor 4 of aryabhatt bhawan ii','Library & Study','Aryabhatt Bhawan II',10,93,56,3,Network
'broken writing desk is blocking the aisle in cl15 this happens repeatedly while the wifi is also unstable','Labs & Research','A2/1',15,56,57,2,Infrastructure
'low water pressure reported around water cooler','General & Utilities','Water cooler',8,40,72,1,Water
'network authentication fails for students around aryabhatt bhawan ii','Library & Study','Aryabhatt Bhawan II',11,58,35,4,Network
'water point near swimming pool is not operational','Sports & Recreation','Swimming Pool',18,78,60,3,Water
'classroom door and several chairs need repair on floor 1 after a power interruption','Academic & Teaching','A2/1',15,25,53,3,Infrastructure
'floor near aryabhatt bhawan iii is dirty and slippery beside the canteen queue','General & Utilities','Aryabhatt Bhawan III',8,46,54,4,Cleanliness
'laboratory equipment reports a calibration error in ff6','Labs & Research','CL1',17,55,35,2,Lab_Equipment
'internet disconnects repeatedly during the lecture in cl3 while the wifi is also unstable','Library & Study','CL3',10,78,48,1,Network
'network authentication fails for students around cl3','Academic & Teaching','CL3',10,91,44,2,Network
'billing queue reaches the stairwell near annapurna / main mess','Food','Annapurna / Main Mess',13,78,45,1,Canteen
'network authentication fails for students around lrc beside the canteen queue','Academic & Teaching','LRC',12,100,84,5,Network
'garbage is overflowing in the corridor on floor 4 students cannot continue class','Hostels','Aryabhatt Bhawan III',17,39,73,5,Cleanliness
'very weak wifi signal on floor 2 of aryabhatt bhawan ii','Library & Study','Aryabhatt Bhawan II',14,36,53,2,Network
'projector in cr425 switches off after ten minutes this happens repeatedly while the wifi is also unstable','Academic & Teaching','CL3',8,42,20,2,Infrastructure
'wifi becomes extremely slow near cs1 between 10 00 and 12 00 and the room is overcrowded','Library & Study','LRC',10,77,34,4,Network
'floor near h4 boys hostel is dirty and slippery beside the canteen queue','Academic & Teaching','H4 Boys Hostel',12,54,65,4,Cleanliness
'waiting time at cafeteria / canteen is more than twenty minutes','Food','Cafeteria / Canteen',13,66,66,3,Canteen
'wifi becomes extremely slow near cl3 between 10 00 and 12 00','Labs & Research','CL15',10,93,64,4,Network
'three lab systems freeze during compilation in cs1','Labs & Research','CL3',8,46,55,2,Lab_Equipment
'network authentication fails for students around cl15','Labs & Research','CL15',9,80,58,2,Network
'food counter is overcrowded between 13 00 and 15 00 this happens repeatedly','Food','Cafeteria / Canteen',13,81,74,3,Canteen
'internet disconnects repeatedly during the lecture in cl22','Library & Study','CL3',12,56,56,2,Network
'water is leaking into the corridor on floor 4 this happens repeatedly','General & Utilities','Girls Hostel',11,62,96,3,Water
'classroom door and several chairs need repair on floor 3','Labs & Research','A2/1',9,59,61,3,Infrastructure
'laboratory equipment reports a calibration error in ts17 and the room is overcrowded','Labs & Research','CL15',14,42,91,4,Lab_Equipment
'wifi becomes extremely slow near g2 between 9 00 and 11 00','Library & Study','CL15',9,62,52,2,Network
'air conditioner stops cooling after noon on ground floor','Hostels','CL22',11,63,60,4,Electrical
'projector in g2 switches off after ten minutes','Academic & Teaching','Aryabhatt Bhawan II',13,72,65,5,Infrastructure
'projector hdmi port is loose in cl22','Labs & Research','A2/1',15,27,34,4,Infrastructure
'unclassified campus issue reported around administration block','Sports & Recreation','Administration Block',14,36,38,3,Water
'laboratory equipment reports a calibration error in ff6','Labs & Research','ECE Labs',10,57,20,1,Lab_Equipment
'very weak wifi signal on floor 1 of cl3','Labs & Research','CL3',10,72,80,1,Network
'projector hdmi port is loose in cl3','Labs & Research','Aryabhatt Bhawan II',12,63,31,4,Infrastructure
'signage is missing for ts17 on floor 4','Administration','Auditorium',15,18,67,3,Other
'food counter is overcrowded between 14 00 and 16 00','Food','Cafeteria / Canteen',14,76,51,2,Canteen
'projector in g2 switches off after ten minutes','Labs & Research','A2/2',9,33,83,2,Infrastructure
'projector hdmi port is loose in cl15','Academic & Teaching','A2/1',9,30,34,4,Infrastructure
'network authentication fails for students around cl15','Library & Study','CL15',12,78,67,3,Network
'garbage is overflowing in the corridor on floor 4 students cannot continue class','General & Utilities','Aryabhatt Bhawan III',15,73,38,3,Cleanliness
'projector hdmi port is loose in cr425','Labs & Research','A2/2',10,51,52,2,Infrastructure
'computer fails to boot during practical class in cl22 while the wifi is also unstable','Labs & Research','CL3',17,32,56,1,Lab_Equipment
'water point near girls hostel is not operational','Sports & Recreation','Girls Hostel',8,54,70,2,Water
'water is leaking into the corridor on floor 4','General & Utilities','Swimming Pool',13,81,96,1,Water
'drinking water cooler near g2 is empty and the room is overcrowded','Hostels','Girls Hostel',11,59,85,1,Water
'canteen queue is very long at 12 00 with one counter open','Food','Annapurna / Main Mess',12,81,68,3,Canteen
'network authentication fails for students around aryabhatt bhawan ii','Library & Study','Aryabhatt Bhawan II',10,95,45,2,Network
'washroom near cl3 has not been cleaned today','General & Utilities','Aryabhatt Bhawan III',15,48,49,3,Cleanliness
'power socket near the desk is unsafe in g2 and the room is overcrowded','Labs & Research','A2/1',10,24,81,2,Electrical
'computer fails to boot during practical class in cr425 this happens repeatedly','Labs & Research','CL22',14,18,41,2,Lab_Equipment
'very weak wifi signal on floor 4 of lrc after a power interruption','Academic & Teaching','LRC',9,79,68,5,Network
'projector hdmi port is loose in ff6','Labs & Research','A2/2',17,73,66,5,Infrastructure
'waiting time at annapurna / main mess is more than twenty minutes','Food','Annapurna / Main Mess',14,69,65,4,Canteen
'spill outside cl22 creates a safety hazard','General & Utilities','Aryabhatt Bhawan III',14,61,80,3,Cleanliness
'waiting time at annapurna / main mess is more than twenty minutes','Food','Annapurna / Main Mess',14,71,53,2,Canteen
'water point near swimming pool is not operational','General & Utilities','Swimming Pool',11,36,93,1,Water
'classroom door and several chairs need repair on floor 4','Academic & Teaching','CL3',17,66,63,1,Infrastructure
'projector in ff6 switches off after ten minutes','Labs & Research','Aryabhatt Bhawan II',13,91,57,4,Infrastructure
'two ceiling fans are not working in g2 after a power interruption','Labs & Research','CL22',18,44,55,3,Electrical
'laboratory equipment reports a calibration error in cr425','Labs & Research','CL1',8,38,26,2,Lab_Equipment
'student common area is overcrowded after 9 00','Sports & Recreation','Auditorium',9,64,45,4,Other
'food counter is overcrowded between 13 00 and 15 00 while the wifi is also unstable','Food','Annapurna / Main Mess',13,99,47,3,Canteen
'broken writing desk is blocking the aisle in cl15 after a power interruption','Labs & Research','CL3',18,49,41,3,Infrastructure
'internet disconnects repeatedly during the lecture in cs1','Library & Study','LRC',10,85,26,4,Network
'projector hdmi port is loose in cl3','Labs & Research','A2/1',10,52,40,3,Infrastructure
'wifi becomes extremely slow near g2 between 9 00 and 11 00 beside the canteen queue','Academic & Teaching','CL3',9,83,51,5,Network
'lights flicker repeatedly inside cl22','Academic & Teaching','H5 Boys Hostel',17,43,84,1,Electrical
'network authentication fails for students around cl3 this happens repeatedly','Library & Study','CL3',14,54,46,2,Network
'projector hdmi port is loose in cl15','Academic & Teaching','CL3',18,24,62,2,Infrastructure
'projector hdmi port is loose in ts17','Academic & Teaching','A2/1',17,33,66,3,Infrastructure
'wifi becomes extremely slow near ts17 between 10 00 and 12 00','Academic & Teaching','CL15',10,73,46,2,Water
'internet disconnects repeatedly during the lecture in cl22 while the wifi is also unstable','Library & Study','CL3',11,84,57,1,Network
'very weak wifi signal on ground floor of cl3','Labs & Research','CL3',10,100,51,4,Network
'broken writing desk is blocking the aisle in cs1','Academic & Teaching','CL3',17,30,62,2,Infrastructure
'computer fails to boot during practical class in cl15 after a power interruption','Labs & Research','CL15',17,54,63,2,Lab_Equipment
'drinking water cooler near cr425 is empty','Hostels','Water cooler',11,57,96,5,Water
'two ceiling fans are not working in g2 students cannot continue class','Hostels','CL22',13,51,64,5,Electrical
'projector in ff6 switches off after ten minutes students cannot continue class','Labs & Research','A2/1',15,38,50,3,Infrastructure
'projector in cr425 switches off after ten minutes','Academic & Teaching','A2/1',9,66,47,4,Infrastructure
'classroom door and several chairs need repair on floor 4 while the wifi is also unstable','Academic & Teaching','CL3',8,66,51,4,Infrastructure
'low water pressure reported around swimming pool','General & Utilities','Swimming Pool',16,26,80,4,Water
'very weak wifi signal on ground floor of lrc','Academic & Teaching','LRC',11,89,70,3,Network
'waiting time at annapurna / main mess is more than twenty minutes','Food','Annapurna / Main Mess',12,65,66,1,Canteen
'garbage is overflowing in the corridor on ground floor after a power interruption','General & Utilities','Aryabhatt Bhawan III',15,50,61,2,Cleanliness
'classroom door and several chairs need repair on floor 4','Labs & Research','A2/2',11,22,26,2,Infrastructure
'garbage is overflowing in the corridor on floor 3','Hostels','Aryabhatt Bhawan III',9,80,64,5,Cleanliness
'projector hdmi port is loose in cr425 beside the canteen queue','Academic & Teaching','A2/2',13,60,64,3,Infrastructure
'drinking water cooler near cr425 is empty please fix urgently near a water cooler','General & Utilities','Water cooler',17,58,81,1,Water
'three lab systems freeze during compilation in cl22','Labs & Research','CL3',10,52,49,3,Lab_Equipment
'canteen queue is very long at 14 00 with one counter open','Food','Cafeteria / Canteen',14,100,79,1,Canteen
'classroom door and several chairs need repair on floor 3 please fix urgently','Labs & Research','A2/2',14,93,49,1,Infrastructure
'very weak wifi signal on floor 1 of aryabhatt bhawan ii','Labs & Research','Aryabhatt Bhawan II',10,100,38,2,Network
'billing queue reaches the stairwell near cafeteria / canteen','Food','Cafeteria / Canteen',13,84,76,1,Canteen
'broken writing desk is blocking the aisle in cl3','Labs & Research','A2/1',13,51,51,4,Infrastructure
'spill outside cr425 creates a safety hazard','Hostels','Aryabhatt Bhawan III',17,44,65,3,Cleanliness
'projector hdmi port is loose in ts17 while the wifi is also unstable','Labs & Research','A2/2',9,51,56,3,Infrastructure
'floor near aryabhatt bhawan iii is dirty and slippery','Hostels','Aryabhatt Bhawan III',14,59,53,5,Cleanliness
'computer fails to boot during practical class in cr425','Labs & Research','CL22',12,56,90,4,Network
'waiting time at cafeteria / canteen is more than twenty minutes','Food','Cafeteria / Canteen',13,76,76,2,Canteen
'waiting time at annapurna / main mess is more than twenty minutes','Food','Annapurna / Main Mess',12,73,51,1,Canteen
'two ceiling fans are not working in cl15','Labs & Research','CL22',14,63,67,3,Electrical
'broken writing desk is blocking the aisle in ff6 please fix urgently','Academic & Teaching','Auditorium',15,84,56,1,Other
'laboratory equipment reports a calibration error in cs1','Labs & Research','CL22',17,42,42,1,Lab_Equipment
'network authentication fails for students around aryabhatt bhawan ii while the wifi is also unstable','Academic & Teaching','Aryabhatt Bhawan II',9,75,32,3,Network
'very weak wifi signal on floor 2 of cl15 students cannot continue class','Academic & Teaching','CL15',10,66,68,2,Network
'canteen queue is very long at 13 00 with one counter open','Food','Cafeteria / Canteen',13,35,81,1,Canteen
'waiting time at cafeteria / canteen is more than twenty minutes','Food','Cafeteria / Canteen',13,83,59,4,Canteen
'projector hdmi port is loose in cs1 after a power interruption','Labs & Research','CL3',8,50,58,3,Infrastructure
'very weak wifi signal on floor 1 of cl3','Academic & Teaching','CL3',10,71,41,3,Network
'low water pressure reported around girls hostel','Hostels','Girls Hostel',18,37,82,5,Water
'low water pressure reported around girls hostel after a power interruption','Hostels','Girls Hostel',17,71,73,5,Water
'three lab systems freeze during compilation in cs1','Labs & Research','CL22',10,61,28,1,Lab_Equipment
'water is leaking into the corridor on floor 1','Sports & Recreation','Swimming Pool',15,47,67,2,Water
'garbage is overflowing in the corridor on floor 4','Hostels','Washrooms',16,47,84,3,Cleanliness
'internet disconnects repeatedly during the lecture in cr425 while the wifi is also unstable','Academic & Teaching','CL15',12,69,50,1,Network
'internet disconnects repeatedly during the lecture in cs1','Library & Study','Aryabhatt Bhawan II',10,100,34,4,Network
'power socket near the desk is unsafe in cl15','Hostels','A2/1',8,56,50,3,Electrical
'network authentication fails for students around aryabhatt bhawan ii','Library & Study','Aryabhatt Bhawan II',10,49,27,1,Network
'very weak wifi signal on floor 3 of lrc','Labs & Research','LRC',9,82,89,2,Network
'canteen queue is very long at 14 00 with one counter open','Food','Cafeteria / Canteen',14,83,40,1,Canteen
'low water pressure reported around water cooler','Sports & Recreation','Water cooler',11,66,72,4,Water
'parking congestion blocks the entrance near parking','Administration','Parking',14,39,50,3,Other
'internet disconnects repeatedly during the lecture in cs1 and the room is overcrowded','Library & Study','Aryabhatt Bhawan II',12,80,63,2,Network
'three lab systems freeze during compilation in ff6 while the wifi is also unstable','Labs & Research','CL1',8,37,39,4,Lab_Equipment
'two ceiling fans are not working in g2 students cannot continue class','Academic & Teaching','CL22',10,49,88,3,Electrical
'student common area is overcrowded after 16 00','Administration','Auditorium',16,68,41,3,Other
'spill outside cl15 creates a safety hazard after a power interruption','Hostels','H4 Boys Hostel',11,76,24,4,Cleanliness
'broken writing desk is blocking the aisle in cs1','Labs & Research','A2/1',13,64,52,3,Infrastructure
'canteen queue is very long at 13 00 with one counter open while the wifi is also unstable','Food','Cafeteria / Canteen',13,87,47,4,Canteen
'laboratory equipment reports a calibration error in ff6','Labs & Research','CL15',13,67,36,2,Lab_Equipment
'power socket near the desk is unsafe in cl3','Academic & Teaching','H5 Boys Hostel',18,40,83,2,Electrical
'projector in cs1 switches off after ten minutes','Labs & Research','A2/1',10,76,45,2,Infrastructure
'wifi becomes extremely slow near cr425 between 9 00 and 11 00 beside the canteen queue','Academic & Teaching','LRC',9,67,46,3,Network
'waiting time at cafeteria / canteen is more than twenty minutes','Food','Cafeteria / Canteen',14,91,77,2,Canteen
'lights flicker repeatedly inside ff6','Hostels','CL22',17,46,86,1,Electrical
'two ceiling fans are not working in ts17','Hostels','H5 Boys Hostel',15,35,63,3,Electrical
'wifi becomes extremely slow near cr425 between 10 00 and 12 00 this happens repeatedly','Labs & Research','CL15',10,57,43,1,Network
'wifi becomes extremely slow near cl22 between 12 00 and 14 00','Library & Study','CL15',12,79,43,4,Network
'internet disconnects repeatedly during the lecture in cr425 near a water cooler','Library & Study','Aryabhatt Bhawan II',10,69,56,3,Network
'laboratory equipment reports a calibration error in ff6 near a water cooler','Labs & Research','CL1',15,14,31,2,Lab_Equipment
'internet disconnects repeatedly during the lecture in cs1','Library & Study','LRC',14,52,49,2,Network
'internet disconnects repeatedly during the lecture in ts17 and the room is overcrowded','Labs & Research','Aryabhatt Bhawan II',10,74,31,4,Network
'food counter is overcrowded between 14 00 and 16 00','Food','Annapurna / Main Mess',14,82,63,2,Canteen
'very weak wifi signal on ground floor of lrc','Library & Study','LRC',11,74,39,3,Network
'very weak wifi signal on floor 3 of lrc near a water cooler','Labs & Research','LRC',12,78,63,3,Network
'projector in cr425 switches off after ten minutes','Labs & Research','Aryabhatt Bhawan II',17,76,30,4,Infrastructure
'wifi becomes extremely slow near cl3 between 14 00 and 16 00 while the wifi is also unstable','Labs & Research','CL15',14,90,45,2,Network
'projector in cl3 switches off after ten minutes','Academic & Teaching','A2/1',13,43,35,4,Infrastructure
'garbage is overflowing in the corridor on floor 3 beside the canteen queue','Hostels','H4 Boys Hostel',12,72,44,3,Cleanliness
'computer fails to boot during practical class in cl3','Labs & Research','CL1',9,64,56,2,Lab_Equipment
'internet disconnects repeatedly during the lecture in cl22','Library & Study','Aryabhatt Bhawan II',10,55,85,3,Other
'floor near h4 boys hostel is dirty and slippery','General & Utilities','H4 Boys Hostel',8,75,40,1,Cleanliness
'projector hdmi port is loose in cl22','Academic & Teaching','CL3',14,74,51,2,Infrastructure
'projector hdmi port is loose in cl3','Academic & Teaching','A2/1',10,69,46,1,Infrastructure
'broken writing desk is blocking the aisle in ff6','Academic & Teaching','CL3',10,63,85,5,Infrastructure
'power socket near the desk is unsafe in cs1 students cannot continue class','Labs & Research','A2/1',18,71,45,4,Electrical
'billing queue reaches the stairwell near cafeteria / canteen please fix urgently','Food','Cafeteria / Canteen',13,80,47,4,Canteen
'spill outside cs1 creates a safety hazard near a water cooler','Hostels','Aryabhatt Bhawan III',9,49,64,3,Cleanliness
'student common area is overcrowded after 9 00','Administration','Main Gate',9,48,55,2,Other
'very weak wifi signal on floor 4 of lrc','Library & Study','LRC',10,87,64,1,Network
'very weak wifi signal on floor 1 of cl15','Library & Study','CL15',10,86,60,2,Network
'network authentication fails for students around cl15','Library & Study','CL15',11,100,83,1,Network
'garbage is overflowing in the corridor on floor 4 while the wifi is also unstable','General & Utilities','H4 Boys Hostel',15,69,58,2,Cleanliness
'projector hdmi port is loose in ff6','Academic & Teaching','CL3',8,21,51,3,Infrastructure
'washroom near cs1 has not been cleaned today while the wifi is also unstable','Academic & Teaching','Aryabhatt Bhawan III',15,48,32,2,Cleanliness
'three lab systems freeze during compilation in ts17 after a power interruption','Labs & Research','CL22',15,49,79,1,Lab_Equipment
'projector hdmi port is loose in cl15 students cannot continue class','Academic & Teaching','A2/1',14,62,61,2,Infrastructure
'internet disconnects repeatedly during the lecture in ff6','Labs & Research','Aryabhatt Bhawan II',10,88,52,5,Network
'internet disconnects repeatedly during the lecture in ts17','Library & Study','CL3',11,81,70,2,Network
'washroom near cs1 has not been cleaned today','Academic & Teaching','Aryabhatt Bhawan III',16,82,35,5,Cleanliness
'broken writing desk is blocking the aisle in cl3','Labs & Research','Aryabhatt Bhawan II',9,45,65,2,Infrastructure
'internet disconnects repeatedly during the lecture in cs1','Labs & Research','CL15',10,57,52,2,Network
'floor near h4 boys hostel is dirty and slippery students cannot continue class','General & Utilities','H4 Boys Hostel',17,75,55,2,Other
'computer fails to boot during practical class in g2','Labs & Research','CL22',15,85,33,2,Lab_Equipment
'canteen queue is very long at 12 00 with one counter open','Food','Annapurna / Main Mess',12,100,60,2,Canteen
'canteen queue is very long at 13 00 with one counter open','Food','Annapurna / Main Mess',13,75,72,1,Canteen
'unclassified campus issue reported around main gate and the room is overcrowded','Sports & Recreation','Main Gate',17,39,52,4,Other
'wifi becomes extremely slow near cl22 between 11 00 and 13 00','Academic & Teaching','CL3',11,80,46,2,Network
'billing queue reaches the stairwell near cafeteria / canteen','Food','Cafeteria / Canteen',14,66,66,1,Canteen
'laboratory equipment reports a calibration error in cl15','Labs & Research','ECE Labs',10,56,24,1,Lab_Equipment
'projector in cl22 switches off after ten minutes','Labs & Research','Aryabhatt Bhawan II',14,41,56,1,Infrastructure
'classroom door and several chairs need repair on floor 2','Labs & Research','A2/2',14,27,49,2,Infrastructure
'water point near swimming pool is not operational students cannot continue class','Hostels','Swimming Pool',11,65,51,1,Water
'signage is missing for cl22 on floor 1 after a power interruption','General & Utilities','Administration Block',9,47,22,3,Other
'projector in g2 switches off after ten minutes','Labs & Research','A2/1',10,60,54,2,Infrastructure
'internet disconnects repeatedly during the lecture in ts17 after a power interruption','Labs & Research','CL15',14,100,75,4,Network
'classroom door and several chairs need repair on floor 1 please fix urgently','Labs & Research','A2/1',15,41,58,4,Infrastructure
'unclassified campus issue reported around auditorium and the room is overcrowded','General & Utilities','Auditorium',14,37,70,4,Other
'waiting time at annapurna / main mess is more than twenty minutes','Food','Annapurna / Main Mess',12,100,74,2,Canteen
'power socket near the desk is unsafe in cl15','Hostels','A2/1',8,51,75,2,Electrical
'waiting time at annapurna / main mess is more than twenty minutes','Food','Annapurna / Main Mess',13,100,53,1,Canteen
'spill outside ff6 creates a safety hazard after a power interruption','General & Utilities','H4 Boys Hostel',9,41,96,2,Cleanliness
'food counter is overcrowded between 14 00 and 16 00','Food','Annapurna / Main Mess',14,100,80,1,Canteen
'projector in g2 switches off after ten minutes','Academic & Teaching','A2/2',13,47,49,2,Infrastructure
'broken writing desk is blocking the aisle in g2 after a power interruption','Labs & Research','CL3',14,43,42,3,Infrastructure
'billing queue reaches the stairwell near cafeteria / canteen this happens repeatedly','Food','Cafeteria / Canteen',12,90,68,3,Canteen
'network authentication fails for students around cl3 please fix urgently','Library & Study','CL3',10,93,63,1,Network
'projector in cl15 switches off after ten minutes beside the canteen queue','Academic & Teaching','A2/1',18,69,47,4,Infrastructure
'classroom door and several chairs need repair on floor 1 after a power interruption','Academic & Teaching','A2/1',9,53,96,1,Infrastructure
'water point near swimming pool is not operational','General & Utilities','Swimming Pool',16,52,77,4,Water
'low water pressure reported around water cooler','Sports & Recreation','Water cooler',15,39,53,3,Water
'wifi becomes extremely slow near g2 between 9 00 and 11 00 this happens repeatedly','Academic & Teaching','CL15',9,84,88,2,Network
'drinking water cooler near cs1 is empty beside the canteen queue','Sports & Recreation','Water cooler',15,46,80,3,Water
'broken writing desk is blocking the aisle in cr425 this happens repeatedly','Labs & Research','A2/2',17,43,23,4,Infrastructure
'parking congestion blocks the entrance near auditorium','Sports & Recreation','Auditorium',14,65,82,1,Lab_Equipment
'waiting time at cafeteria / canteen is more than twenty minutes','Food','Cafeteria / Canteen',14,88,70,2,Canteen
'canteen queue is very long at 13 00 with one counter open','Food','Cafeteria / Canteen',13,100,62,4,Canteen
'food counter is overcrowded between 13 00 and 15 00','Food','Cafeteria / Canteen',13,92,77,3,Canteen
'three lab systems freeze during compilation in cr425','Labs & Research','ECE Labs',13,57,55,4,Cleanliness
'projector in cs1 switches off after ten minutes please fix urgently','Academic & Teaching','Aryabhatt Bhawan II',11,60,62,2,Infrastructure
'two ceiling fans are not working in cl15','Academic & Teaching','CL22',11,37,42,2,Electrical
'projector hdmi port is loose in cl15','Labs & Research','CL3',16,39,73,3,Infrastructure
'garbage is overflowing in the corridor on floor 4','Academic & Teaching','Aryabhatt Bhawan III',11,44,50,1,Cleanliness
'very weak wifi signal on floor 2 of cl15 after a power interruption','Library & Study','CL15',11,100,54,4,Network
'internet disconnects repeatedly during the lecture in g2','Academic & Teaching','CL15',11,53,50,4,Network
'classroom door and several chairs need repair on ground floor students cannot continue class beside the canteen queue','Labs & Research','Aryabhatt Bhawan II',18,48,62,1,Infrastructure
'two ceiling fans are not working in cr425 students cannot continue class while the wifi is also unstable','Academic & Teaching','H5 Boys Hostel',13,52,62,3,Electrical
'waiting time at cafeteria / canteen is more than twenty minutes this happens repeatedly','Food','Cafeteria / Canteen',13,86,65,3,Canteen
'network authentication fails for students around cl3','Labs & Research','CL3',11,62,58,4,Network
'network authentication fails for students around lrc','Academic & Teaching','LRC',10,82,57,3,Network
'garbage is overflowing in the corridor on floor 1','General & Utilities','Washrooms',16,61,41,1,Cleanliness
'very weak wifi signal on ground floor of cl3','Academic & Teaching','CL3',9,66,53,1,Network
'wifi becomes extremely slow near cl22 between 12 00 and 14 00 beside the canteen queue','Labs & Research','CL3',12,82,73,3,Network
'wifi becomes extremely slow near cl15 between 11 00 and 13 00','Labs & Research','Aryabhatt Bhawan II',11,64,64,1,Network
'wifi becomes extremely slow near ff6 between 11 00 and 13 00 and the room is overcrowded','Library & Study','LRC',11,89,36,2,Network
'very weak wifi signal on floor 1 of aryabhatt bhawan ii','Academic & Teaching','Aryabhatt Bhawan II',10,77,57,2,Network
'classroom door and several chairs need repair on floor 3 this happens repeatedly','Labs & Research','A2/2',12,49,67,2,Other
'broken writing desk is blocking the aisle in cr425','Labs & Research','A2/1',14,48,55,1,Infrastructure
'projector hdmi port is loose in ts17','Labs & Research','A2/2',17,61,52,1,Infrastructure
'classroom door and several chairs need repair on floor 2 students cannot continue class','Labs & Research','CL3',11,68,46,5,Infrastructure
'waiting time at cafeteria / canteen is more than twenty minutes','Food','Cafeteria / Canteen',14,100,94,3,Canteen
'very weak wifi signal on floor 3 of cl15','Academic & Teaching','CL15',10,98,35,4,Network
'broken writing desk is blocking the aisle in cl22 after a power interruption','Academic & Teaching','A2/1',15,46,34,4,Infrastructure
'laboratory equipment reports a calibration error in cr425','Labs & Research','CL3',10,66,60,2,Lab_Equipment
'projector hdmi port is loose in cr425','Academic & Teaching','CL3',9,89,35,4,Infrastructure
'water is leaking into the corridor on ground floor please fix urgently','General & Utilities','Water cooler',15,64,60,2,Water
'network authentication fails for students around lrc','Academic & Teaching','LRC',11,65,67,1,Network
'spill outside ts17 creates a safety hazard','Hostels','H4 Boys Hostel',17,56,21,3,Cleanliness
'very weak wifi signal on floor 1 of cl15','Labs & Research','CL15',10,100,20,3,Network
'projector hdmi port is loose in cr425','Labs & Research','Aryabhatt Bhawan II',14,43,64,3,Infrastructure
'low water pressure reported around water cooler','Sports & Recreation','Water cooler',9,78,44,3,Water
'laboratory equipment reports a calibration error in ff6','Labs & Research','ECE Labs',18,38,59,2,Lab_Equipment
'power socket near the desk is unsafe in ts17','Academic & Teaching','H5 Boys Hostel',9,71,59,1,Electrical
'water is leaking into the corridor on floor 2 while the wifi is also unstable','Sports & Recreation','Water cooler',8,82,56,1,Cleanliness
'classroom door and several chairs need repair on floor 3','Academic & Teaching','CL3',18,63,20,2,Infrastructure
'signage is missing for cr425 on floor 2','General & Utilities','Parking',18,74,79,2,Other
'power socket near the desk is unsafe in ts17 this happens repeatedly','Labs & Research','A2/1',10,80,65,4,Electrical
'spill outside ts17 creates a safety hazard','Hostels','Aryabhatt Bhawan III',8,72,79,5,Lab_Equipment
'water point near girls hostel is not operational','Sports & Recreation','Girls Hostel',13,49,88,4,Water
'lights flicker repeatedly inside cl3 please fix urgently','Labs & Research','H5 Boys Hostel',18,32,93,3,Electrical
'broken writing desk is blocking the aisle in ff6','Labs & Research','A2/1',8,52,38,5,Infrastructure
'broken writing desk is blocking the aisle in cr425','Academic & Teaching','A2/1',8,76,38,1,Infrastructure
'monitor and keyboard are not detected at workstation in ff6','Labs & Research','CL22',12,84,38,2,Lab_Equipment
'spill outside cr425 creates a safety hazard','General & Utilities','H4 Boys Hostel',15,41,37,2,Cleanliness
'very weak wifi signal on floor 4 of cl15 students cannot continue class','Academic & Teaching','CL15',10,63,51,4,Network
'three lab systems freeze during compilation in cl22','Labs & Research','CL1',17,44,45,4,Lab_Equipment
'very weak wifi signal on floor 2 of cl3','Library & Study','CL3',10,89,47,5,Network
'very weak wifi signal on floor 4 of lrc','Academic & Teaching','LRC',9,100,47,3,Network
'network authentication fails for students around aryabhatt bhawan ii this happens repeatedly','Academic & Teaching','Aryabhatt Bhawan II',9,57,73,3,Network
'very weak wifi signal on floor 1 of cl15','Labs & Research','CL15',10,96,52,3,Network
'very weak wifi signal on ground floor of aryabhatt bhawan ii','Library & Study','Aryabhatt Bhawan II',9,81,55,1,Network
'canteen queue is very long at 13 00 with one counter open','Food','Annapurna / Main Mess',13,87,52,3,Lab_Equipment
'laboratory equipment reports a calibration error in cl22','Labs & Research','CL22',12,41,55,3,Lab_Equipment
'garbage is overflowing in the corridor on floor 3','Academic & Teaching','H4 Boys Hostel',15,47,41,2,Cleanliness
'internet disconnects repeatedly during the lecture in cr425','Library & Study','Aryabhatt Bhawan II',11,65,66,4,Network
'broken writing desk is blocking the aisle in cl22','Labs & Research','A2/2',8,61,47,2,Infrastructure
'network authentication fails for students around cl15','Labs & Research','CL15',11,50,51,3,Network
'low water pressure reported around water cooler this happens repeatedly','General & Utilities','Water cooler',8,57,53,1,Water
'wifi becomes extremely slow near cl22 between 12 00 and 14 00','Library & Study','Aryabhatt Bhawan II',12,80,32,3,Network
'internet disconnects repeatedly during the lecture in ts17','Academic & Teaching','CL15',9,100,75,2,Network
'monitor and keyboard are not detected at workstation in g2','Labs & Research','ECE Labs',10,37,50,2,Lab_Equipment
'classroom door and several chairs need repair on floor 3','Academic & Teaching','Aryabhatt Bhawan II',11,46,56,2,Lab_Equipment
'network authentication fails for students around cl15','Library & Study','CL15',9,67,51,2,Network
'wifi becomes extremely slow near ff6 between 11 00 and 13 00','Academic & Teaching','LRC',11,87,36,4,Network
'projector hdmi port is loose in cl15 beside the canteen queue','Academic & Teaching','A2/1',17,81,61,3,Infrastructure
'internet disconnects repeatedly during the lecture in cl3','Labs & Research','CL15',12,91,45,3,Network
'wifi becomes extremely slow near cl22 between 12 00 and 14 00','Library & Study','Aryabhatt Bhawan II',12,91,39,2,Network
'network authentication fails for students around cl15','Labs & Research','CL15',11,64,50,2,Network
'laboratory equipment reports a calibration error in cs1','Labs & Research','ECE Labs',8,48,51,3,Lab_Equipment
'wifi becomes extremely slow near ts17 between 11 00 and 13 00 please fix urgently','Labs & Research','CL3',11,71,63,2,Network
'wifi becomes extremely slow near g2 between 9 00 and 11 00','Labs & Research','CL15',9,88,50,2,Network
'classroom door and several chairs need repair on floor 3','Labs & Research','CL3',15,47,72,3,Network
'air conditioner stops cooling after noon on floor 1 and the room is overcrowded','Academic & Teaching','H5 Boys Hostel',14,97,46,2,Electrical
'lights flicker repeatedly inside cs1','Academic & Teaching','A2/1',18,49,82,3,Electrical
'monitor and keyboard are not detected at workstation in cl3 please fix urgently','Labs & Research','CL1',18,62,58,2,Lab_Equipment
'food counter is overcrowded between 13 00 and 15 00','Food','Cafeteria / Canteen',13,61,67,5,Canteen
'projector in g2 switches off after ten minutes','Academic & Teaching','Aryabhatt Bhawan II',12,48,45,3,Infrastructure
'garbage is overflowing in the corridor on floor 2','Hostels','H4 Boys Hostel',16,43,69,1,Cleanliness
'broken writing desk is blocking the aisle in cl22 please fix urgently','Labs & Research','A2/2',14,61,61,1,Infrastructure
'spill outside cl15 creates a safety hazard','Hostels','Aryabhatt Bhawan III',8,61,55,3,Cleanliness
'internet disconnects repeatedly during the lecture in cl3 please fix urgently','Academic & Teaching','Aryabhatt Bhawan II',14,80,46,3,Network
'washroom near cs1 has not been cleaned today','Hostels','Washrooms',10,52,49,3,Cleanliness
'food counter is overcrowded between 14 00 and 16 00 near a water cooler','Food','Annapurna / Main Mess',14,59,51,1,Canteen
'network authentication fails for students around aryabhatt bhawan ii after a power interruption','Labs & Research','Aryabhatt Bhawan II',14,59,70,4,Network
'three lab systems freeze during compilation in cr425','Labs & Research','CL3',9,68,52,2,Lab_Equipment
'two ceiling fans are not working in cr425 please fix urgently','Academic & Teaching','A2/1',9,38,68,1,Water
'network authentication fails for students around cl3','Labs & Research','CL3',9,52,57,3,Cleanliness
'classroom door and several chairs need repair on floor 3','Labs & Research','CL3',11,45,65,4,Infrastructure
'spill outside cl22 creates a safety hazard','Academic & Teaching','H4 Boys Hostel',16,32,49,2,Cleanliness
'air conditioner stops cooling after noon on floor 4 students cannot continue class and the room is overcrowded','Academic & Teaching','H5 Boys Hostel',12,75,63,3,Electrical
'monitor and keyboard are not detected at workstation in cl3 this happens repeatedly','Labs & Research','CL1',11,69,68,2,Lab_Equipment
'internet disconnects repeatedly during the lecture in cr425','Academic & Teaching','CL15',9,79,63,3,Network
'three lab systems freeze during compilation in cl15 beside the canteen queue','Labs & Research','CL22',13,55,39,2,Lab_Equipment
'student common area is overcrowded after 16 00 beside the canteen queue','General & Utilities','Main Gate',16,74,77,2,Other
'waiting time at cafeteria / canteen is more than twenty minutes this happens repeatedly','Food','Cafeteria / Canteen',12,95,83,3,Canteen
'internet disconnects repeatedly during the lecture in cs1 near a water cooler','Labs & Research','CL15',10,65,52,2,Network
'wifi becomes extremely slow near cl3 between 12 00 and 14 00 while the wifi is also unstable','Academic & Teaching','LRC',12,93,66,1,Network
'lights flicker repeatedly inside cr425 while the wifi is also unstable','Academic & Teaching','H5 Boys Hostel',18,56,74,3,Electrical
'three lab systems freeze during compilation in cs1','Labs & Research','CL3',9,45,56,4,Lab_Equipment
'classroom door and several chairs need repair on ground floor','Labs & Research','Aryabhatt Bhawan II',16,57,60,3,Infrastructure
'projector hdmi port is loose in ts17','Academic & Teaching','A2/2',9,53,56,2,Infrastructure
'garbage is overflowing in the corridor on ground floor','Academic & Teaching','H4 Boys Hostel',12,26,39,1,Cleanliness
'drinking water cooler near cs1 is empty','Sports & Recreation','Girls Hostel',13,49,49,1,Water
'projector in cl22 switches off after ten minutes','Labs & Research','Aryabhatt Bhawan II',14,6,27,2,Infrastructure
'computer fails to boot during practical class in ts17','Labs & Research','CL1',14,58,57,2,Lab_Equipment
'waiting time at cafeteria / canteen is more than twenty minutes','Food','Cafeteria / Canteen',14,100,77,2,Canteen
'wifi becomes extremely slow near cs1 between 14 00 and 16 00 students cannot continue class','Labs & Research','Aryabhatt Bhawan II',14,52,53,2,Network
'air conditioner stops cooling after noon on floor 2 please fix urgently','Academic & Teaching','A2/1',13,5,62,1,Electrical
'internet disconnects repeatedly during the lecture in g2 this happens repeatedly','Academic & Teaching','Aryabhatt Bhawan II',12,94,33,3,Network
'wifi becomes extremely slow near cl22 between 11 00 and 13 00 students cannot continue class','Labs & Research','CL3',11,83,59,5,Lab_Equipment
'internet disconnects repeatedly during the lecture in cl3','Academic & Teaching','CL15',14,79,69,1,Network
'very weak wifi signal on floor 1 of cl15 while the wifi is also unstable','Academic & Teaching','CL15',11,100,38,3,Network
'food counter is overcrowded between 14 00 and 16 00','Food','Cafeteria / Canteen',14,45,34,2,Canteen
'billing queue reaches the stairwell near cafeteria / canteen','Food','Cafeteria / Canteen',14,73,30,2,Canteen
'projector in cl22 switches off after ten minutes while the wifi is also unstable','Academic & Teaching','Aryabhatt Bhawan II',13,61,60,2,Infrastructure
'very weak wifi signal on floor 3 of aryabhatt bhawan ii','Academic & Teaching','Aryabhatt Bhawan II',10,61,37,1,Network
'very weak wifi signal on floor 2 of cl15','Labs & Research','CL15',12,64,53,3,Network
'water point near water cooler is not operational','General & Utilities','Water cooler',12,43,62,3,Water
'wifi becomes extremely slow near g2 between 12 00 and 14 00','Labs & Research','LRC',12,86,37,2,Network
'spill outside ts17 creates a safety hazard','General & Utilities','Washrooms',9,90,30,2,Cleanliness
'very weak wifi signal on floor 1 of lrc near a water cooler','Labs & Research','LRC',9,53,55,1,Network
'classroom door and several chairs need repair on floor 1 and the room is overcrowded','Labs & Research','A2/2',8,30,49,3,Infrastructure
'garbage is overflowing in the corridor on floor 2 after a power interruption','Academic & Teaching','Washrooms',9,49,38,5,Cleanliness
'billing queue reaches the stairwell near cafeteria / canteen','Food','Cafeteria / Canteen',12,93,53,2,Canteen
'power socket near the desk is unsafe in cl15','Academic & Teaching','H5 Boys Hostel',12,28,83,4,Electrical
'floor near h4 boys hostel is dirty and slippery','General & Utilities','H4 Boys Hostel',8,31,60,1,Cleanliness
'network authentication fails for students around cl15','Library & Study','CL15',12,98,34,1,Network
'classroom door and several chairs need repair on ground floor','Labs & Research','Aryabhatt Bhawan II',17,54,62,1,Infrastructure
'wifi becomes extremely slow near cs1 between 11 00 and 13 00','Academic & Teaching','LRC',11,62,70,3,Network
'lights flicker repeatedly inside g2','Hostels','CL22',14,35,62,1,Electrical
'classroom door and several chairs need repair on ground floor and the room is overcrowded','Labs & Research','CL3',8,22,44,1,Infrastructure
'laboratory equipment reports a calibration error in cr425','Labs & Research','CL1',12,39,59,3,Lab_Equipment
'projector hdmi port is loose in g2','Labs & Research','CL3',16,61,62,4,Infrastructure
'broken writing desk is blocking the aisle in cl3','Labs & Research','A2/1',12,69,61,3,Infrastructure
'washroom near cs1 has not been cleaned today','Hostels','Washrooms',8,54,43,3,Cleanliness
'very weak wifi signal on floor 2 of aryabhatt bhawan ii please fix urgently','Library & Study','Aryabhatt Bhawan II',10,72,29,4,Network
'lights flicker repeatedly inside ff6 after a power interruption','Labs & Research','H5 Boys Hostel',18,66,76,3,Electrical
'projector hdmi port is loose in g2 this happens repeatedly','Academic & Teaching','CL3',8,41,79,3,Infrastructure
'wifi becomes extremely slow near g2 between 11 00 and 13 00 please fix urgently near a water cooler','Academic & Teaching','CL15',11,73,37,2,Network
'air conditioner stops cooling after noon on floor 1','Academic & Teaching','H5 Boys Hostel',11,56,86,2,Electrical
'monitor and keyboard are not detected at workstation in ff6','Labs & Research','CL22',18,45,47,5,Lab_Equipment
'waiting time at cafeteria / canteen is more than twenty minutes','Food','Cafeteria / Canteen',13,84,39,2,Canteen
'laboratory equipment reports a calibration error in cs1 near a water cooler','Labs & Research','CL3',16,34,66,5,Lab_Equipment
'washroom near cs1 has not been cleaned today','Academic & Teaching','H4 Boys Hostel',16,80,52,4,Cleanliness
'canteen queue is very long at 14 00 with one counter open','Food','Annapurna / Main Mess',14,75,84,2,Canteen
'billing queue reaches the stairwell near annapurna / main mess this happens repeatedly','Food','Annapurna / Main Mess',13,47,67,3,Canteen
'internet disconnects repeatedly during the lecture in cl15','Library & Study','CL15',10,55,50,3,Network
'network authentication fails for students around cl3','Academic & Teaching','CL3',14,53,37,3,Water
'air conditioner stops cooling after noon on floor 4 please fix urgently','Academic & Teaching','CL22',16,37,35,4,Electrical
'washroom near cl15 has not been cleaned today','Hostels','H4 Boys Hostel',18,45,59,1,Cleanliness
'canteen queue is very long at 13 00 with one counter open','Food','Cafeteria / Canteen',13,87,59,3,Canteen
'air conditioner stops cooling after noon on ground floor','Labs & Research','CL22',17,63,69,1,Electrical
'very weak wifi signal on floor 2 of lrc','Labs & Research','LRC',14,71,46,2,Network
'lights flicker repeatedly inside g2 and the room is overcrowded','Hostels','H5 Boys Hostel',12,71,62,4,Electrical
'billing queue reaches the stairwell near annapurna / main mess','Food','Annapurna / Main Mess',13,100,86,2,Canteen
'broken writing desk is blocking the aisle in cr425','Labs & Research','A2/1',18,67,26,4,Infrastructure
'wifi becomes extremely slow near cl15 between 10 00 and 12 00','Library & Study','CL15',10,69,88,3,Network
'monitor and keyboard are not detected at workstation in cl3 after a power interruption','Labs & Research','CL1',15,57,36,5,Lab_Equipment
'wifi becomes extremely slow near g2 between 10 00 and 12 00','Labs & Research','Aryabhatt Bhawan II',10,100,30,3,Network
'classroom door and several chairs need repair on floor 4 please fix urgently','Academic & Teaching','A2/1',9,23,61,1,Infrastructure
'network authentication fails for students around aryabhatt bhawan ii','Library & Study','Aryabhatt Bhawan II',9,61,68,1,Network
'projector hdmi port is loose in ts17 after a power interruption','Labs & Research','Aryabhatt Bhawan II',15,78,55,1,Water
'waiting time at annapurna / main mess is more than twenty minutes this happens repeatedly','Food','Annapurna / Main Mess',14,85,57,2,Canteen
'broken writing desk is blocking the aisle in cr425','Academic & Teaching','A2/1',13,31,68,1,Infrastructure
'broken writing desk is blocking the aisle in cl3 students cannot continue class','Academic & Teaching','CL3',9,18,52,2,Infrastructure
'broken writing desk is blocking the aisle in g2 while the wifi is also unstable','Labs & Research','A2/1',11,62,44,2,Infrastructure
'billing queue reaches the stairwell near annapurna / main mess','Food','Annapurna / Main Mess',12,85,55,3,Canteen
'wifi becomes extremely slow near cr425 between 11 00 and 13 00 near a water cooler','Library & Study','Aryabhatt Bhawan II',11,45,40,1,Network
'garbage is overflowing in the corridor on floor 3','General & Utilities','H4 Boys Hostel',8,72,51,5,Cleanliness
'classroom door and several chairs need repair on floor 1 please fix urgently','Labs & Research','A2/1',12,19,92,2,Infrastructure
'very weak wifi signal on floor 3 of aryabhatt bhawan ii','Library & Study','Aryabhatt Bhawan II',14,67,62,3,Network
'signage is missing for g2 on floor 2','Administration','Auditorium',14,36,51,2,Other
'food counter is overcrowded between 13 00 and 15 00','Food','Cafeteria / Canteen',13,80,75,2,Canteen
'wifi becomes extremely slow near cl15 between 10 00 and 12 00','Library & Study','CL3',10,75,47,4,Network
'very weak wifi signal on floor 1 of cl3','Labs & Research','CL3',11,62,44,3,Network
'very weak wifi signal on floor 4 of lrc','Academic & Teaching','LRC',14,47,68,2,Network
'internet disconnects repeatedly during the lecture in ts17','Labs & Research','Aryabhatt Bhawan II',11,100,66,3,Network
'classroom door and several chairs need repair on floor 4 please fix urgently','Academic & Teaching','CL3',16,63,48,4,Infrastructure
'water is leaking into the corridor on floor 2','Hostels','Swimming Pool',16,40,65,1,Water
'computer fails to boot during practical class in cl3','Labs & Research','CL1',16,69,65,2,Lab_Equipment
'unclassified campus issue reported around auditorium please fix urgently beside the canteen queue','Administration','Auditorium',13,86,65,4,Other
'broken writing desk is blocking the aisle in cs1','Labs & Research','Aryabhatt Bhawan II',16,42,70,3,Infrastructure
'wifi becomes extremely slow near cl15 between 9 00 and 11 00','Library & Study','CL3',9,100,41,3,Network
'unclassified campus issue reported around parking while the wifi is also unstable','Administration','Parking',15,72,85,4,Other
'network authentication fails for students around lrc','Academic & Teaching','LRC',11,70,40,3,Network
'projector hdmi port is loose in ff6 please fix urgently','Academic & Teaching','Aryabhatt Bhawan II',18,48,23,2,Infrastructure
'classroom door and several chairs need repair on floor 2','Labs & Research','A2/1',13,83,39,3,Infrastructure
'very weak wifi signal on floor 2 of lrc','Labs & Research','LRC',12,97,60,2,Network
'monitor and keyboard are not detected at workstation in ts17','Labs & Research','CL1',14,66,41,2,Lab_Equipment
'very weak wifi signal on floor 2 of aryabhatt bhawan ii','Labs & Research','Aryabhatt Bhawan II',9,84,53,1,Network
'very weak wifi signal on floor 2 of lrc','Academic & Teaching','LRC',10,100,73,2,Network
'water point near water cooler is not operational','General & Utilities','Water cooler',12,56,68,3,Water
'projector in cl15 switches off after ten minutes please fix urgently and the room is overcrowded','Academic & Teaching','Aryabhatt Bhawan II',8,81,56,2,Infrastructure
'billing queue reaches the stairwell near annapurna / main mess','Food','Annapurna / Main Mess',12,89,70,4,Canteen
'internet disconnects repeatedly during the lecture in cl3','Labs & Research','LRC',10,100,52,1,Network
'internet disconnects repeatedly during the lecture in cl15','Labs & Research','Aryabhatt Bhawan II',12,46,61,2,Network
'waiting time at annapurna / main mess is more than twenty minutes','Food','Annapurna / Main Mess',12,49,70,1,Canteen
'internet disconnects repeatedly during the lecture in ff6','Library & Study','CL3',9,69,54,1,Network
'classroom door and several chairs need repair on floor 4 this happens repeatedly','Labs & Research','Aryabhatt Bhawan II',16,55,76,2,Infrastructure
'power socket near the desk is unsafe in cl15 near a water cooler','Hostels','CL22',9,84,26,2,Electrical
'monitor and keyboard are not detected at workstation in ff6 this happens repeatedly after a power interruption','Labs & Research','ECE Labs',14,76,68,3,Lab_Equipment
'spill outside cl3 creates a safety hazard','General & Utilities','Aryabhatt Bhawan III',16,74,23,1,Cleanliness
'very weak wifi signal on floor 3 of cl3','Library & Study','CL3',14,96,61,5,Network
'billing queue reaches the stairwell near annapurna / main mess','Food','Annapurna / Main Mess',13,50,69,1,Canteen
'three lab systems freeze during compilation in cl22','Labs & Research','CL3',15,68,69,1,Lab_Equipment
'network authentication fails for students around cl15 after a power interruption','Academic & Teaching','CL15',11,59,51,2,Network
'billing queue reaches the stairwell near cafeteria / canteen','Food','Cafeteria / Canteen',14,69,55,1,Canteen
'computer fails to boot during practical class in cl3','Labs & Research','CL22',14,16,54,2,Lab_Equipment
'broken writing desk is blocking the aisle in cs1','Academic & Teaching','A2/2',8,41,62,2,Infrastructure
'food counter is overcrowded between 13 00 and 15 00','Food','Cafeteria / Canteen',13,63,51,4,Canteen
'power socket near the desk is unsafe in cr425 and the room is overcrowded','Academic & Teaching','CL22',13,45,57,3,Electrical
'broken writing desk is blocking the aisle in cr425 beside the canteen queue','Labs & Research','CL3',11,34,37,3,Infrastructure
'network authentication fails for students around lrc please fix urgently','Academic & Teaching','LRC',10,91,31,3,Network
'signage is missing for g2 on ground floor','Sports & Recreation','Administration Block',11,56,84,3,Other
'garbage is overflowing in the corridor on floor 2','Hostels','Washrooms',15,40,63,2,Cleanliness
'two ceiling fans are not working in g2','Labs & Research','A2/1',18,69,57,4,Electrical
'broken writing desk is blocking the aisle in cl22','Academic & Teaching','Aryabhatt Bhawan II',13,49,85,3,Infrastructure
'garbage is overflowing in the corridor on ground floor','Hostels','Aryabhatt Bhawan III',10,99,40,3,Cleanliness
'unclassified campus issue reported around auditorium near a water cooler','Administration','Auditorium',13,62,76,4,Other
'broken writing desk is blocking the aisle in ts17','Labs & Research','Aryabhatt Bhawan II',11,91,68,4,Infrastructure
'power socket near the desk is unsafe in ff6','Labs & Research','A2/1',9,50,70,2,Electrical
'air conditioner stops cooling after noon on floor 4','Labs & Research','CL22',13,34,53,4,Electrical
'monitor and keyboard are not detected at workstation in ts17','Labs & Research','CL22',16,45,51,4,Electrical
'projector in ts17 switches off after ten minutes','Labs & Research','A2/2',13,13,49,3,Infrastructure
'spill outside cl15 creates a safety hazard near a water cooler','General & Utilities','H4 Boys Hostel',8,55,65,2,Cleanliness
'drinking water cooler near cl3 is empty','General & Utilities','Girls Hostel',18,72,58,2,Water
'three lab systems freeze during compilation in cl22 students cannot continue class beside the canteen queue','Labs & Research','CL22',10,69,22,2,Lab_Equipment
'billing queue reaches the stairwell near annapurna / main mess','Food','Annapurna / Main Mess',12,54,45,3,Canteen
'projector hdmi port is loose in cr425 after a power interruption','Labs & Research','CL3',13,55,43,3,Infrastructure
'projector hdmi port is loose in g2','Academic & Teaching','A2/2',14,24,56,1,Lab_Equipment
'lights flicker repeatedly inside cl3 beside the canteen queue','Academic & Teaching','A2/1',11,81,85,1,Electrical
'projector in cs1 switches off after ten minutes near a water cooler','Academic & Teaching','A2/1',12,19,45,2,Infrastructure
'student common area is overcrowded after 9 00','Sports & Recreation','Main Gate',9,57,30,4,Other
'three lab systems freeze during compilation in cl3','Labs & Research','CL1',16,59,60,1,Lab_Equipment
'projector hdmi port is loose in cl15','Labs & Research','A2/1',8,58,60,3,Infrastructure
'power socket near the desk is unsafe in cr425 while the wifi is also unstable','Hostels','A2/1',11,58,78,3,Electrical
'internet disconnects repeatedly during the lecture in cl15','Academic & Teaching','Aryabhatt Bhawan II',11,76,85,2,Network
'laboratory equipment reports a calibration error in cl15','Labs & Research','CL15',11,53,79,4,Lab_Equipment
'washroom near g2 has not been cleaned today','Hostels','Aryabhatt Bhawan III',18,76,55,3,Cleanliness
'waiting time at cafeteria / canteen is more than twenty minutes','Food','Cafeteria / Canteen',12,69,45,2,Canteen
'projector in ts17 switches off after ten minutes','Labs & Research','A2/1',11,57,48,3,Infrastructure
'water point near girls hostel is not operational after a power interruption','Hostels','Girls Hostel',11,35,68,1,Water
'classroom door and several chairs need repair on floor 1','Academic & Teaching','CL3',10,5,57,4,Infrastructure
'monitor and keyboard are not detected at workstation in ts17','Labs & Research','CL1',18,64,34,5,Lab_Equipment
'floor near aryabhatt bhawan iii is dirty and slippery','Academic & Teaching','Aryabhatt Bhawan III',10,68,86,1,Cleanliness
'projector hdmi port is loose in g2','Academic & Teaching','A2/1',11,44,55,1,Infrastructure
'network authentication fails for students around cl15','Academic & Teaching','CL15',9,54,68,1,Network
'three lab systems freeze during compilation in ff6','Labs & Research','CL1',17,63,61,2,Lab_Equipment
'wifi becomes extremely slow near cl15 between 12 00 and 14 00','Library & Study','LRC',12,63,58,2,Network
'drinking water cooler near cl3 is empty while the wifi is also unstable','Hostels','Water cooler',11,89,48,4,Water
'broken writing desk is blocking the aisle in cs1','Academic & Teaching','A2/2',11,76,42,5,Infrastructure
'broken writing desk is blocking the aisle in g2 beside the canteen queue','Academic & Teaching','A2/2',15,29,47,3,Infrastructure
'waiting time at annapurna / main mess is more than twenty minutes','Food','Annapurna / Main Mess',14,73,77,4,Canteen
'projector in cl22 switches off after ten minutes and the room is overcrowded','Academic & Teaching','A2/1',8,70,77,2,Infrastructure
'parking congestion blocks the entrance near main gate','General & Utilities','Main Gate',14,78,33,5,Other
'two ceiling fans are not working in cs1','Labs & Research','A2/1',16,42,76,1,Lab_Equipment
'network authentication fails for students around lrc and the room is overcrowded','Labs & Research','LRC',11,96,51,3,Network
'broken writing desk is blocking the aisle in cl22','Labs & Research','A2/2',16,19,35,2,Infrastructure
'three lab systems freeze during compilation in ts17 please fix urgently','Labs & Research','CL22',8,67,38,3,Lab_Equipment
'very weak wifi signal on floor 3 of aryabhatt bhawan ii','Labs & Research','Aryabhatt Bhawan II',14,56,40,3,Network
'water is leaking into the corridor on floor 3','General & Utilities','Water cooler',13,48,55,2,Water
'unclassified campus issue reported around administration block beside the canteen queue','Sports & Recreation','Administration Block',13,16,52,4,Other
'student common area is overcrowded after 16 00 while the wifi is also unstable','Sports & Recreation','Auditorium',16,56,34,3,Other
'two ceiling fans are not working in ff6 beside the canteen queue','Academic & Teaching','H5 Boys Hostel',13,64,67,3,Electrical
'broken writing desk is blocking the aisle in cr425','Academic & Teaching','Aryabhatt Bhawan II',12,89,62,3,Infrastructure
'internet disconnects repeatedly during the lecture in cl22 after a power interruption','Library & Study','Aryabhatt Bhawan II',10,74,71,3,Network
'network authentication fails for students around cl3','Labs & Research','CL3',10,53,25,2,Network
'billing queue reaches the stairwell near cafeteria / canteen','Food','Cafeteria / Canteen',12,97,37,2,Lab_Equipment
'computer fails to boot during practical class in cl3','Labs & Research','CL22',10,57,56,4,Lab_Equipment
'washroom near ts17 has not been cleaned today','General & Utilities','Aryabhatt Bhawan III',18,72,27,3,Cleanliness
'low water pressure reported around swimming pool','General & Utilities','Swimming Pool',18,77,47,2,Water
'projector in cl3 switches off after ten minutes','Labs & Research','CL3',14,49,53,4,Infrastructure
'wifi becomes extremely slow near cs1 between 9 00 and 11 00','Library & Study','CL15',9,24,45,2,Network
'power socket near the desk is unsafe in cl3','Hostels','A2/1',8,15,67,3,Canteen
'floor near h4 boys hostel is dirty and slippery','General & Utilities','H4 Boys Hostel',8,25,59,4,Cleanliness
'washroom near cr425 has not been cleaned today','Academic & Teaching','Aryabhatt Bhawan III',10,46,52,3,Cleanliness
'very weak wifi signal on floor 4 of cl3','Library & Study','CL3',12,56,63,3,Network
'three lab systems freeze during compilation in cl15 please fix urgently','Labs & Research','CL1',14,21,44,2,Lab_Equipment
'lights flicker repeatedly inside ts17','Academic & Teaching','CL22',10,17,96,2,Electrical
'network authentication fails for students around cl3 near a water cooler','Labs & Research','CL3',10,66,43,2,Network
'two ceiling fans are not working in cl3','Academic & Teaching','H5 Boys Hostel',10,35,77,1,Electrical
'classroom door and several chairs need repair on floor 4','Academic & Teaching','Aryabhatt Bhawan II',8,90,59,1,Infrastructure
'wifi becomes extremely slow near cr425 between 10 00 and 12 00','Library & Study','LRC',10,57,72,2,Network
'internet disconnects repeatedly during the lecture in cr425','Library & Study','LRC',11,100,38,2,Network
'projector in ff6 switches off after ten minutes','Labs & Research','A2/2',11,58,41,2,Infrastructure
'wifi becomes extremely slow near cl22 between 9 00 and 11 00 students cannot continue class near a water cooler','Labs & Research','LRC',9,100,60,3,Network
'water is leaking into the corridor on floor 1','General & Utilities','Girls Hostel',10,46,56,4,Water
'canteen queue is very long at 12 00 with one counter open after a power interruption','Food','Cafeteria / Canteen',12,58,71,5,Canteen
'laboratory equipment reports a calibration error in cl3 while the wifi is also unstable','Labs & Research','CL3',10,79,45,2,Lab_Equipment
'broken writing desk is blocking the aisle in ff6 while the wifi is also unstable','Labs & Research','A2/2',16,68,31,2,Infrastructure
'wifi becomes extremely slow near cr425 between 14 00 and 16 00 after a power interruption','Library & Study','CL3',14,77,86,2,Network
'broken writing desk is blocking the aisle in cr425','Labs & Research','A2/2',8,64,43,2,Infrastructure
'very weak wifi signal on ground floor of cl15 near a water cooler','Library & Study','CL15',11,54,30,2,Network
'lights flicker repeatedly inside cl15 this happens repeatedly','Academic & Teaching','H5 Boys Hostel',12,71,64,2,Electrical
'spill outside cl15 creates a safety hazard','Academic & Teaching','H4 Boys Hostel',9,34,63,2,Cleanliness
'internet disconnects repeatedly during the lecture in g2','Labs & Research','Aryabhatt Bhawan II',10,100,57,3,Network
'wifi becomes extremely slow near ts17 between 11 00 and 13 00 and the room is overcrowded','Academic & Teaching','Aryabhatt Bhawan II',11,64,66,3,Network
'classroom door and several chairs need repair on floor 4','Labs & Research','A2/2',14,46,32,2,Infrastructure
'projector hdmi port is loose in g2','Labs & Research','A2/1',12,55,65,1,Infrastructure
'internet disconnects repeatedly during the lecture in cr425 students cannot continue class beside the canteen queue','Library & Study','Aryabhatt Bhawan II',12,90,69,3,Network
'canteen queue is very long at 14 00 with one counter open','Food','Cafeteria / Canteen',14,56,46,2,Canteen
'very weak wifi signal on floor 2 of cl15','Library & Study','CL15',10,53,69,1,Network
'very weak wifi signal on floor 4 of cl3 this happens repeatedly','Labs & Research','CL3',10,100,38,3,Network
'laboratory equipment reports a calibration error in cl15','Labs & Research','CL22',12,63,48,2,Lab_Equipment
'very weak wifi signal on floor 1 of cl3','Academic & Teaching','CL3',11,54,53,2,Network
'lights flicker repeatedly inside cl15 near a water cooler','Hostels','H5 Boys Hostel',13,49,80,3,Electrical
'washroom near cs1 has not been cleaned today','Hostels','Washrooms',16,62,90,3,Cleanliness
'network authentication fails for students around lrc near a water cooler','Academic & Teaching','LRC',10,100,49,3,Network
'billing queue reaches the stairwell near annapurna / main mess','Food','Annapurna / Main Mess',12,79,60,3,Canteen
'lights flicker repeatedly inside ts17','Labs & Research','A2/1',9,67,52,3,Electrical
'power socket near the desk is unsafe in ff6 students cannot continue class','Hostels','A2/1',10,51,52,2,Electrical
'waiting time at annapurna / main mess is more than twenty minutes','Food','Annapurna / Main Mess',12,85,50,1,Canteen
'internet disconnects repeatedly during the lecture in cr425','Academic & Teaching','CL3',9,75,57,1,Network
'canteen queue is very long at 13 00 with one counter open while the wifi is also unstable','Food','Cafeteria / Canteen',13,81,77,2,Canteen
'internet disconnects repeatedly during the lecture in ff6','Library & Study','CL15',9,76,59,2,Network
'classroom door and several chairs need repair on floor 4','Labs & Research','CL3',18,42,20,4,Infrastructure
'canteen queue is very long at 12 00 with one counter open and the room is overcrowded','Food','Annapurna / Main Mess',12,100,42,2,Canteen
'projector in cl22 switches off after ten minutes near a water cooler','Academic & Teaching','Aryabhatt Bhawan II',12,59,54,2,Infrastructure
'billing queue reaches the stairwell near annapurna / main mess while the wifi is also unstable','Food','Annapurna / Main Mess',12,89,48,2,Canteen
'student common area is overcrowded after 13 00 students cannot continue class','General & Utilities','Administration Block',13,69,53,4,Other
'network authentication fails for students around cl3','Academic & Teaching','CL3',12,73,63,3,Network
'very weak wifi signal on floor 3 of cl3','Academic & Teaching','CL3',10,41,59,2,Network
'unclassified campus issue reported around main gate','Administration','Main Gate',18,83,20,3,Other
'projector in cl22 switches off after ten minutes please fix urgently','Academic & Teaching','A2/1',12,45,53,4,Infrastructure
'food counter is overcrowded between 13 00 and 15 00','Food','Cafeteria / Canteen',13,75,47,1,Canteen
'internet disconnects repeatedly during the lecture in ff6','Library & Study','CL3',14,95,49,2,Network
'waiting time at annapurna / main mess is more than twenty minutes','Food','Annapurna / Main Mess',13,54,77,2,Canteen
'very weak wifi signal on floor 4 of cl3','Library & Study','CL3',10,58,74,4,Network
'washroom near cs1 has not been cleaned today','Hostels','Washrooms',8,59,43,3,Cleanliness
'garbage is overflowing in the corridor on floor 3','Academic & Teaching','Washrooms',14,55,50,4,Cleanliness
'very weak wifi signal on ground floor of lrc','Labs & Research','LRC',9,82,47,1,Network
'classroom door and several chairs need repair on floor 4','Academic & Teaching','A2/2',16,42,64,4,Infrastructure
'three lab systems freeze during compilation in g2 near a water cooler','Labs & Research','CL15',17,75,61,2,Cleanliness
'very weak wifi signal on ground floor of cl15','Labs & Research','CL15',14,86,54,3,Network
'waiting time at cafeteria / canteen is more than twenty minutes after a power interruption','Food','Cafeteria / Canteen',13,72,62,3,Canteen
'monitor and keyboard are not detected at workstation in g2','Labs & Research','CL1',10,78,24,4,Lab_Equipment
'two ceiling fans are not working in cs1 this happens repeatedly','Hostels','H5 Boys Hostel',12,45,82,1,Electrical
'laboratory equipment reports a calibration error in cr425','Labs & Research','ECE Labs',13,56,78,2,Lab_Equipment
'garbage is overflowing in the corridor on floor 3 while the wifi is also unstable','Hostels','Washrooms',9,85,37,3,Cleanliness
'computer fails to boot during practical class in ts17','Labs & Research','CL3',9,58,57,3,Lab_Equipment
'air conditioner stops cooling after noon on floor 1 beside the canteen queue','Hostels','A2/1',8,52,73,2,Electrical
'drinking water cooler near cl15 is empty','Sports & Recreation','Water cooler',11,46,54,1,Water
'classroom door and several chairs need repair on floor 4','Labs & Research','A2/2',18,47,40,5,Infrastructure
'waiting time at annapurna / main mess is more than twenty minutes students cannot continue class','Food','Annapurna / Main Mess',12,87,52,3,Canteen
'very weak wifi signal on floor 2 of aryabhatt bhawan ii please fix urgently','Labs & Research','Aryabhatt Bhawan II',14,86,67,3,Network
'food counter is overcrowded between 13 00 and 15 00','Food','Cafeteria / Canteen',13,69,40,2,Canteen
'monitor and keyboard are not detected at workstation in cl22','Labs & Research','CL3',12,47,71,5,Lab_Equipment
'low water pressure reported around water cooler this happens repeatedly','Sports & Recreation','Water cooler',15,65,66,4,Water
'projector hdmi port is loose in cs1 this happens repeatedly','Labs & Research','A2/1',12,44,41,3,Infrastructure
'two ceiling fans are not working in cr425','Labs & Research','A2/1',8,44,59,3,Infrastructure
'wifi becomes extremely slow near cs1 between 11 00 and 13 00 please fix urgently','Library & Study','CL3',11,71,47,2,Network
'drinking water cooler near cr425 is empty','General & Utilities','Girls Hostel',11,66,69,3,Water
'power socket near the desk is unsafe in cs1','Labs & Research','H5 Boys Hostel',9,63,63,2,Electrical
'three lab systems freeze during compilation in cl22 while the wifi is also unstable','Labs & Research','CL1',9,62,37,2,Lab_Equipment
'wifi becomes extremely slow near g2 between 14 00 and 16 00','Library & Study','Aryabhatt Bhawan II',14,76,52,3,Water
'very weak wifi signal on ground floor of aryabhatt bhawan ii this happens repeatedly','Academic & Teaching','Aryabhatt Bhawan II',10,100,80,3,Network
'broken writing desk is blocking the aisle in cl15 and the room is overcrowded','Academic & Teaching','Aryabhatt Bhawan II',13,66,22,2,Infrastructure
'laboratory equipment reports a calibration error in cl15','Labs & Research','ECE Labs',17,49,96,3,Canteen
'canteen queue is very long at 13 00 with one counter open students cannot continue class','Food','Cafeteria / Canteen',13,68,64,2,Canteen
'wifi becomes extremely slow near ts17 between 14 00 and 16 00','Labs & Research','CL15',14,92,65,3,Network
'classroom door and several chairs need repair on floor 2','Labs & Research','CL3',16,59,65,3,Infrastructure
'classroom door and several chairs need repair on floor 4','Labs & Research','A2/2',12,60,48,2,Infrastructure
'billing queue reaches the stairwell near annapurna / main mess','Food','Annapurna / Main Mess',14,88,64,4,Canteen
'unclassified campus issue reported around main gate students cannot continue class','General & Utilities','Main Gate',16,52,50,2,Other
'wifi becomes extremely slow near cs1 between 12 00 and 14 00','Library & Study','CL3',12,43,41,3,Network
'low water pressure reported around girls hostel','Sports & Recreation','Girls Hostel',11,57,74,4,Water
'classroom door and several chairs need repair on floor 3','Labs & Research','A2/2',15,67,58,2,Infrastructure
'broken writing desk is blocking the aisle in cl3','Academic & Teaching','A2/1',16,71,52,5,Infrastructure
'garbage is overflowing in the corridor on ground floor','Hostels','H4 Boys Hostel',10,43,46,1,Cleanliness
'internet disconnects repeatedly during the lecture in cl15 this happens repeatedly','Academic & Teaching','CL15',10,50,34,1,Network
'food counter is overcrowded between 12 00 and 14 00','Food','Annapurna / Main Mess',12,56,79,4,Canteen
'laboratory equipment reports a calibration error in ts17','Labs & Research','CL15',13,40,43,3,Lab_Equipment
'computer fails to boot during practical class in g2','Labs & Research','CL3',16,63,48,1,Lab_Equipment
'garbage is overflowing in the corridor on floor 4','Academic & Teaching','Washrooms',14,89,84,3,Cleanliness
'three lab systems freeze during compilation in cl15 students cannot continue class','Labs & Research','CL1',18,66,53,3,Lab_Equipment
'air conditioner stops cooling after noon on ground floor','Hostels','CL22',14,70,52,3,Electrical
'broken writing desk is blocking the aisle in cr425','Academic & Teaching','Aryabhatt Bhawan II',8,35,67,4,Infrastructure
'washroom near cl15 has not been cleaned today','Academic & Teaching','H4 Boys Hostel',16,37,39,3,Cleanliness
'computer fails to boot during practical class in ts17','Labs & Research','CL1',13,45,40,2,Lab_Equipment
'broken writing desk is blocking the aisle in cr425','Academic & Teaching','A2/1',10,57,40,2,Infrastructure
'classroom door and several chairs need repair on floor 1 near a water cooler','Labs & Research','Aryabhatt Bhawan II',11,34,74,3,Infrastructure
'washroom near ff6 has not been cleaned today','General & Utilities','Aryabhatt Bhawan III',10,70,53,1,Cleanliness
'internet disconnects repeatedly during the lecture in cl15 students cannot continue class','Library & Study','CL3',10,72,57,3,Network
'network authentication fails for students around cl3','Library & Study','CL3',12,83,90,3,Network
'internet disconnects repeatedly during the lecture in cl22 please fix urgently','Labs & Research','CL3',9,93,58,3,Network
'internet disconnects repeatedly during the lecture in cl3','Library & Study','CL15',10,77,50,2,Water
'washroom near cl15 has not been cleaned today','Academic & Teaching','H4 Boys Hostel',10,23,56,4,Cleanliness
'three lab systems freeze during compilation in cl22','Labs & Research','CL15',18,37,40,3,Lab_Equipment
'broken writing desk is blocking the aisle in cl15','Labs & Research','CL3',17,52,77,5,Infrastructure
'network authentication fails for students around aryabhatt bhawan ii please fix urgently','Library & Study','Aryabhatt Bhawan II',11,73,27,5,Network
'very weak wifi signal on floor 4 of aryabhatt bhawan ii','Academic & Teaching','CL15',9,100,75,2,Network
'laboratory equipment reports a calibration error in cl22','Labs & Research','ECE Labs',12,46,57,2,Lab_Equipment
'spill outside ts17 creates a safety hazard while the wifi is also unstable','General & Utilities','H4 Boys Hostel',14,53,74,1,Cleanliness
'unclassified campus issue reported around parking this happens repeatedly','Administration','Parking',15,41,47,2,Other
'broken writing desk is blocking the aisle in ts17','Labs & Research','Aryabhatt Bhawan II',14,48,54,4,Infrastructure
'wifi becomes extremely slow near cl22 between 14 00 and 16 00 please fix urgently','Labs & Research','Aryabhatt Bhawan II',14,43,43,1,Network
'internet disconnects repeatedly during the lecture in g2 near a water cooler','Academic & Teaching','CL15',10,88,42,3,Network
'network authentication fails for students around cl3','Labs & Research','CL3',12,81,83,1,Network
'computer fails to boot during practical class in ff6 please fix urgently','Labs & Research','CL3',11,62,68,3,Lab_Equipment
'floor near aryabhatt bhawan iii is dirty and slippery','General & Utilities','Aryabhatt Bhawan III',17,38,56,5,Cleanliness
'laboratory equipment reports a calibration error in cs1','Labs & Research','CL1',15,38,91,3,Lab_Equipment
'billing queue reaches the stairwell near annapurna / main mess students cannot continue class','Food','Annapurna / Main Mess',13,60,34,1,Canteen
'classroom door and several chairs need repair on ground floor','Academic & Teaching','A2/1',12,95,63,1,Infrastructure
'air conditioner stops cooling after noon on floor 1','Hostels','A2/1',18,45,63,3,Electrical
'canteen queue is very long at 14 00 with one counter open','Food','Cafeteria / Canteen',14,72,50,3,Canteen
'classroom door and several chairs need repair on floor 4','Labs & Research','A2/1',10,85,49,4,Infrastructure
'food counter is overcrowded between 13 00 and 15 00','Food','Cafeteria / Canteen',13,83,57,5,Other
'floor near washrooms is dirty and slippery while the wifi is also unstable','General & Utilities','Washrooms',18,22,89,3,Cleanliness
'computer fails to boot during practical class in g2','Labs & Research','CL3',17,41,64,3,Lab_Equipment
'internet disconnects repeatedly during the lecture in cr425 please fix urgently','Labs & Research','CL3',10,68,70,2,Network
'internet disconnects repeatedly during the lecture in cs1','Academic & Teaching','LRC',10,100,68,1,Network
'projector hdmi port is loose in ff6','Academic & Teaching','CL3',16,54,67,2,Infrastructure
'broken writing desk is blocking the aisle in cr425','Labs & Research','A2/2',11,40,26,1,Electrical
'very weak wifi signal on floor 3 of cl3 while the wifi is also unstable','Library & Study','CL3',10,95,56,2,Network
'very weak wifi signal on floor 4 of cl3 after a power interruption','Academic & Teaching','CL3',10,86,37,4,Network
'washroom near g2 has not been cleaned today this happens repeatedly near a water cooler','General & Utilities','Washrooms',9,67,41,3,Cleanliness
'network authentication fails for students around aryabhatt bhawan ii students cannot continue class','Academic & Teaching','Aryabhatt Bhawan II',10,70,41,2,Network
'power socket near the desk is unsafe in cl22','Labs & Research','CL22',13,47,44,2,Electrical
'wifi becomes extremely slow near cl22 between 9 00 and 11 00 beside the canteen queue','Library & Study','LRC',9,91,66,5,Infrastructure
'projector hdmi port is loose in g2 near a water cooler','Academic & Teaching','CL3',13,72,20,2,Infrastructure
'classroom door and several chairs need repair on floor 1','Academic & Teaching','A2/2',12,68,60,2,Infrastructure
'broken writing desk is blocking the aisle in cr425','Academic & Teaching','A2/1',9,31,57,3,Infrastructure
'billing queue reaches the stairwell near annapurna / main mess','Food','Annapurna / Main Mess',13,53,47,1,Canteen
'broken writing desk is blocking the aisle in cl22','Labs & Research','Aryabhatt Bhawan II',13,53,29,4,Infrastructure
'monitor and keyboard are not detected at workstation in cl3','Labs & Research','ECE Labs',16,93,58,3,Lab_Equipment
'laboratory equipment reports a calibration error in g2','Labs & Research','CL1',16,71,25,4,Lab_Equipment
'billing queue reaches the stairwell near annapurna / main mess','Food','Annapurna / Main Mess',13,97,48,5,Canteen
'projector hdmi port is loose in ts17','Academic & Teaching','A2/2',18,38,54,5,Infrastructure
'drinking water cooler near cs1 is empty','Hostels','Swimming Pool',17,43,82,2,Water
'wifi becomes extremely slow near cl22 between 10 00 and 12 00 near a water cooler','Labs & Research','CL3',10,83,36,4,Network
'waiting time at annapurna / main mess is more than twenty minutes students cannot continue class','Food','Annapurna / Main Mess',13,75,49,5,Canteen
'internet disconnects repeatedly during the lecture in cl15 after a power interruption','Academic & Teaching','CL3',14,57,30,1,Network
'projector hdmi port is loose in cl15','Academic & Teaching','CL3',13,66,53,4,Infrastructure
'two ceiling fans are not working in cs1','Hostels','A2/1',18,84,65,2,Electrical
'projector in g2 switches off after ten minutes near a water cooler','Labs & Research','CL3',9,54,34,2,Infrastructure
'internet disconnects repeatedly during the lecture in cs1','Labs & Research','CL15',11,81,50,2,Network
'floor near h4 boys hostel is dirty and slippery','General & Utilities','H4 Boys Hostel',10,39,80,4,Cleanliness
'water point near girls hostel is not operational','General & Utilities','Girls Hostel',14,33,61,2,Water
'broken writing desk is blocking the aisle in ts17','Academic & Teaching','A2/2',16,65,66,1,Infrastructure
'laboratory equipment reports a calibration error in ts17','Labs & Research','ECE Labs',18,63,28,2,Lab_Equipment
'garbage is overflowing in the corridor on floor 3','Hostels','Aryabhatt Bhawan III',13,45,68,3,Cleanliness
'spill outside ff6 creates a safety hazard beside the canteen queue','General & Utilities','Washrooms',11,45,50,1,Cleanliness
'computer fails to boot during practical class in cl15','Labs & Research','CL3',18,50,84,2,Lab_Equipment
'garbage is overflowing in the corridor on ground floor and the room is overcrowded','General & Utilities','H4 Boys Hostel',18,29,74,2,Lab_Equipment
'wifi becomes extremely slow near cr425 between 11 00 and 13 00','Library & Study','CL3',11,93,59,3,Network
'very weak wifi signal on ground floor of cl3','Library & Study','CL3',11,91,47,1,Network
'floor near washrooms is dirty and slippery','Hostels','Washrooms',8,48,53,3,Cleanliness
'monitor and keyboard are not detected at workstation in g2 near a water cooler','Labs & Research','CL1',8,69,65,3,Lab_Equipment
'power socket near the desk is unsafe in ts17','Academic & Teaching','A2/1',12,56,73,3,Electrical
'food counter is overcrowded between 14 00 and 16 00','Food','Annapurna / Main Mess',14,63,43,2,Canteen
'projector hdmi port is loose in ff6 while the wifi is also unstable','Labs & Research','Aryabhatt Bhawan II',17,43,70,4,Infrastructure
'classroom door and several chairs need repair on floor 2','Academic & Teaching','CL3',9,42,41,4,Infrastructure
'classroom door and several chairs need repair on floor 1','Academic & Teaching','A2/2',18,50,20,3,Infrastructure
'garbage is overflowing in the corridor on ground floor near a water cooler','Hostels','H4 Boys Hostel',8,89,51,4,Cleanliness
'broken writing desk is blocking the aisle in cl15','Labs & Research','A2/1',13,82,64,2,Infrastructure
'network authentication fails for students around aryabhatt bhawan ii','Labs & Research','Aryabhatt Bhawan II',10,86,70,5,Network
'broken writing desk is blocking the aisle in cl3','Labs & Research','Aryabhatt Bhawan II',8,56,57,2,Infrastructure
'power socket near the desk is unsafe in ts17','Academic & Teaching','CL22',10,53,71,3,Electrical
'wifi becomes extremely slow near cl22 between 14 00 and 16 00','Library & Study','Aryabhatt Bhawan II',14,92,67,3,Network
'waiting time at cafeteria / canteen is more than twenty minutes','Food','Cafeteria / Canteen',13,68,72,3,Canteen
'projector hdmi port is loose in cl3 this happens repeatedly','Labs & Research','A2/2',12,70,51,5,Infrastructure
'drinking water cooler near cl22 is empty','Sports & Recreation','Girls Hostel',18,69,64,5,Water
'classroom door and several chairs need repair on floor 2','Academic & Teaching','Aryabhatt Bhawan II',16,55,65,3,Network
'air conditioner stops cooling after noon on floor 1','Academic & Teaching','CL22',11,87,79,4,Electrical
'two ceiling fans are not working in ts17 after a power interruption','Hostels','A2/1',13,34,40,2,Electrical
'three lab systems freeze during compilation in cs1','Labs & Research','CL15',9,77,56,2,Lab_Equipment
'canteen queue is very long at 12 00 with one counter open','Food','Annapurna / Main Mess',12,62,75,2,Canteen
'lights flicker repeatedly inside ts17','Labs & Research','CL22',12,55,71,2,Electrical
'air conditioner stops cooling after noon on floor 4 this happens repeatedly','Labs & Research','CL22',16,87,71,3,Electrical
'broken writing desk is blocking the aisle in cs1','Labs & Research','A2/1',12,81,60,3,Infrastructure
'washroom near ts17 has not been cleaned today','General & Utilities','Washrooms',9,89,64,1,Cleanliness
'air conditioner stops cooling after noon on ground floor','Hostels','CL22',11,49,92,1,Electrical
'network authentication fails for students around cl3','Labs & Research','CL3',10,60,44,1,Network
'wifi becomes extremely slow near ff6 between 9 00 and 11 00','Library & Study','CL15',9,87,74,1,Network
'wifi becomes extremely slow near cl22 between 10 00 and 12 00','Academic & Teaching','CL15',10,61,84,4,Network
'internet disconnects repeatedly during the lecture in ff6','Library & Study','Aryabhatt Bhawan II',10,100,48,3,Network
'floor near h4 boys hostel is dirty and slippery','Academic & Teaching','H4 Boys Hostel',16,75,96,1,Cleanliness
'very weak wifi signal on floor 4 of aryabhatt bhawan ii','Academic & Teaching','Aryabhatt Bhawan II',11,78,48,2,Network
'water point near water cooler is not operational','General & Utilities','Water cooler',18,49,93,1,Water
'very weak wifi signal on floor 2 of cl15 after a power interruption','Labs & Research','CL15',11,100,38,3,Network
'canteen queue is very long at 13 00 with one counter open','Food','Annapurna / Main Mess',13,93,46,3,Canteen
'billing queue reaches the stairwell near cafeteria / canteen','Food','Cafeteria / Canteen',13,68,59,4,Canteen
'network authentication fails for students around cl15','Labs & Research','CL15',9,54,67,4,Network
'monitor and keyboard are not detected at workstation in cr425','Labs & Research','ECE Labs',17,73,34,1,Lab_Equipment
'internet disconnects repeatedly during the lecture in cr425','Library & Study','CL15',11,86,53,4,Network
'broken writing desk is blocking the aisle in cl3','Academic & Teaching','A2/2',12,42,96,2,Infrastructure
'water point near water cooler is not operational','General & Utilities','Water cooler',8,57,70,4,Water
'floor near washrooms is dirty and slippery','General & Utilities','Washrooms',16,78,20,3,Cleanliness
'network authentication fails for students around aryabhatt bhawan ii','Academic & Teaching','Aryabhatt Bhawan II',10,100,72,1,Lab_Equipment
'signage is missing for cs1 on floor 2','Sports & Recreation','Parking',8,59,29,4,Other
'network authentication fails for students around cl15 please fix urgently','Academic & Teaching','CL15',14,81,40,1,Network
'food counter is overcrowded between 14 00 and 16 00','Food','Cafeteria / Canteen',14,100,20,4,Canteen
'internet disconnects repeatedly during the lecture in ts17','Academic & Teaching','CL3',10,68,35,3,Network
'monitor and keyboard are not detected at workstation in ff6','Labs & Research','CL1',16,48,46,3,Lab_Equipment
'projector in ts17 switches off after ten minutes','Academic & Teaching','A2/2',14,72,56,2,Infrastructure
'waiting time at annapurna / main mess is more than twenty minutes','Food','Annapurna / Main Mess',12,66,36,2,Canteen
'student common area is overcrowded after 8 00','General & Utilities','Administration Block',8,56,59,3,Other
'projector in cl22 switches off after ten minutes this happens repeatedly','Labs & Research','A2/2',12,52,51,3,Infrastructure
'spill outside cl3 creates a safety hazard this happens repeatedly after a power interruption','General & Utilities','Aryabhatt Bhawan III',14,39,69,1,Cleanliness
'billing queue reaches the stairwell near cafeteria / canteen this happens repeatedly','Food','Cafeteria / Canteen',13,54,42,4,Canteen
'network authentication fails for students around aryabhatt bhawan ii','Labs & Research','Aryabhatt Bhawan II',10,75,75,1,Network
'floor near aryabhatt bhawan iii is dirty and slippery after a power interruption','General & Utilities','Aryabhatt Bhawan III',9,54,33,1,Cleanliness
'air conditioner stops cooling after noon on floor 3','Hostels','H5 Boys Hostel',8,33,47,1,Electrical
'internet disconnects repeatedly during the lecture in g2','Labs & Research','CL15',9,64,57,2,Other
'three lab systems freeze during compilation in cl3','Labs & Research','ECE Labs',12,96,83,1,Lab_Equipment
'wifi becomes extremely slow near ts17 between 11 00 and 13 00','Library & Study','LRC',11,91,20,4,Network
'waiting time at annapurna / main mess is more than twenty minutes','Food','Annapurna / Main Mess',13,95,37,2,Canteen
'internet disconnects repeatedly during the lecture in g2','Labs & Research','LRC',12,75,81,2,Other
'low water pressure reported around girls hostel','General & Utilities','Girls Hostel',17,71,92,1,Cleanliness
'internet disconnects repeatedly during the lecture in g2 students cannot continue class and the room is overcrowded','Labs & Research','CL3',14,50,64,2,Network
'billing queue reaches the stairwell near cafeteria / canteen','Food','Cafeteria / Canteen',14,92,42,2,Canteen
'lights flicker repeatedly inside cl22','Academic & Teaching','A2/1',15,47,84,2,Network
'spill outside ff6 creates a safety hazard near a water cooler','General & Utilities','Aryabhatt Bhawan III',15,43,47,1,Cleanliness
'laboratory equipment reports a calibration error in cr425 beside the canteen queue','Labs & Research','ECE Labs',14,63,43,3,Lab_Equipment
'broken writing desk is blocking the aisle in cs1','Labs & Research','A2/1',14,45,29,2,Infrastructure
'water point near girls hostel is not operational','Sports & Recreation','Girls Hostel',14,49,40,4,Water
'three lab systems freeze during compilation in ts17','Labs & Research','CL3',18,73,54,1,Lab_Equipment
'computer fails to boot during practical class in cl22','Labs & Research','CL15',12,56,40,4,Lab_Equipment
'computer fails to boot during practical class in cl22','Labs & Research','CL22',9,47,33,2,Lab_Equipment
'wifi becomes extremely slow near cl3 between 10 00 and 12 00 after a power interruption','Labs & Research','Aryabhatt Bhawan II',10,77,59,2,Network
'wifi becomes extremely slow near ts17 between 11 00 and 13 00','Library & Study','CL15',11,73,65,3,Network
'low water pressure reported around water cooler','Sports & Recreation','Water cooler',8,29,82,5,Water
'wifi becomes extremely slow near cl15 between 10 00 and 12 00 beside the canteen queue','Labs & Research','CL15',10,82,44,3,Network
'three lab systems freeze during compilation in cl15','Labs & Research','CL15',9,63,43,1,Lab_Equipment
'classroom door and several chairs need repair on floor 1','Labs & Research','CL3',9,51,63,3,Infrastructure
'projector hdmi port is loose in cl22','Labs & Research','Aryabhatt Bhawan II',9,83,60,3,Infrastructure
'washroom near ts17 has not been cleaned today while the wifi is also unstable','Academic & Teaching','H4 Boys Hostel',14,45,73,3,Cleanliness
'food counter is overcrowded between 14 00 and 16 00','Food','Cafeteria / Canteen',14,94,29,1,Canteen
'broken writing desk is blocking the aisle in cs1 this happens repeatedly','Labs & Research','CL3',9,51,31,2,Infrastructure
'parking congestion blocks the entrance near parking','Administration','Parking',9,29,46,2,Other
'drinking water cooler near cl3 is empty','Hostels','Water cooler',18,88,81,3,Water
'food counter is overcrowded between 12 00 and 14 00 near a water cooler','Food','Cafeteria / Canteen',12,76,53,4,Canteen
'billing queue reaches the stairwell near annapurna / main mess','Food','Annapurna / Main Mess',12,100,45,1,Canteen
'laboratory equipment reports a calibration error in cl3 this happens repeatedly','Labs & Research','ECE Labs',18,43,82,2,Lab_Equipment
'broken writing desk is blocking the aisle in cr425','Academic & Teaching','A2/2',12,54,38,3,Infrastructure
'student common area is overcrowded after 11 00','General & Utilities','Main Gate',11,72,35,3,Other
'power socket near the desk is unsafe in cs1','Academic & Teaching','A2/1',14,63,96,3,Electrical
'very weak wifi signal on floor 3 of cl15','Labs & Research','CL15',12,55,40,2,Network
'broken writing desk is blocking the aisle in g2 after a power interruption','Labs & Research','A2/1',15,48,57,2,Infrastructure
'garbage is overflowing in the corridor on floor 4 students cannot continue class','Hostels','Washrooms',18,37,35,4,Cleanliness
'wifi becomes extremely slow near cl22 between 10 00 and 12 00','Library & Study','LRC',10,100,53,4,Network
'computer fails to boot during practical class in cl22 this happens repeatedly','Labs & Research','CL22',9,25,61,3,Lab_Equipment
'network authentication fails for students around lrc this happens repeatedly and the room is overcrowded','Academic & Teaching','LRC',10,62,55,2,Network
'computer fails to boot during practical class in cr425','Labs & Research','CL1',12,20,38,3,Lab_Equipment
'network authentication fails for students around cl15','Academic & Teaching','CL15',10,71,67,1,Network
'floor near h4 boys hostel is dirty and slippery','General & Utilities','H4 Boys Hostel',12,78,52,1,Cleanliness
'network authentication fails for students around aryabhatt bhawan ii while the wifi is also unstable','Labs & Research','Aryabhatt Bhawan II',10,70,42,2,Electrical
'very weak wifi signal on ground floor of cl15 this happens repeatedly','Labs & Research','CL15',10,87,58,2,Network
'internet disconnects repeatedly during the lecture in cr425','Labs & Research','CL15',10,72,58,1,Network
'computer fails to boot during practical class in g2','Labs & Research','CL1',17,65,38,4,Lab_Equipment
'power socket near the desk is unsafe in g2','Hostels','CL22',14,63,61,5,Electrical
'air conditioner stops cooling after noon on ground floor','Hostels','CL22',18,69,46,1,Electrical
'billing queue reaches the stairwell near cafeteria / canteen','Food','Cafeteria / Canteen',14,45,53,3,Other
'projector hdmi port is loose in cl15','Labs & Research','CL3',14,69,61,2,Infrastructure
'canteen queue is very long at 12 00 with one counter open near a water cooler','Food','Annapurna / Main Mess',12,68,32,1,Electrical
'very weak wifi signal on ground floor of lrc','Library & Study','LRC',14,89,58,1,Network
'network authentication fails for students around lrc','Academic & Teaching','LRC',14,73,58,1,Network
'washroom near cl22 has not been cleaned today','Hostels','Washrooms',14,24,48,3,Cleanliness
'billing queue reaches the stairwell near cafeteria / canteen near a water cooler','Food','Cafeteria / Canteen',13,87,47,2,Canteen
'student common area is overcrowded after 11 00 beside the canteen queue','Administration','Auditorium',11,95,42,3,Other
'power socket near the desk is unsafe in cl3','Hostels','A2/1',17,43,61,3,Electrical
'internet disconnects repeatedly during the lecture in g2 please fix urgently','Academic & Teaching','CL15',11,81,45,1,Network
'washroom near cl3 has not been cleaned today beside the canteen queue','Academic & Teaching','H4 Boys Hostel',9,36,56,3,Cleanliness
'classroom door and several chairs need repair on floor 2 while the wifi is also unstable','Labs & Research','A2/2',15,63,63,3,Infrastructure
'very weak wifi signal on floor 4 of cl3 near a water cooler','Library & Study','CL3',14,88,30,3,Network
'lights flicker repeatedly inside ts17','Academic & Teaching','A2/1',8,42,58,1,Electrical
'parking congestion blocks the entrance near parking','Administration','Parking',18,68,39,1,Other
'monitor and keyboard are not detected at workstation in cr425','Labs & Research','CL1',11,76,48,3,Lab_Equipment
'wifi becomes extremely slow near g2 between 14 00 and 16 00','Labs & Research','CL3',14,61,44,3,Network
'canteen queue is very long at 14 00 with one counter open after a power interruption','Food','Cafeteria / Canteen',14,91,39,4,Canteen
'wifi becomes extremely slow near cl3 between 10 00 and 12 00','Library & Study','CL3',10,93,40,2,Network
'projector hdmi port is loose in cl3','Labs & Research','A2/1',10,15,33,2,Infrastructure
'unclassified campus issue reported around auditorium','Sports & Recreation','Auditorium',13,55,59,1,Other
'very weak wifi signal on floor 4 of aryabhatt bhawan ii','Library & Study','Aryabhatt Bhawan II',9,72,30,2,Network
'classroom door and several chairs need repair on floor 3 this happens repeatedly','Academic & Teaching','CL3',17,28,63,2,Infrastructure
'garbage is overflowing in the corridor on ground floor near a water cooler','Academic & Teaching','Washrooms',14,28,88,1,Cleanliness
'drinking water cooler near cr425 is empty','Hostels','Water cooler',16,86,65,1,Water
'internet disconnects repeatedly during the lecture in ff6','Academic & Teaching','CL3',11,86,66,5,Network
'laboratory equipment reports a calibration error in ff6','Labs & Research','CL1',10,61,77,3,Lab_Equipment
'internet disconnects repeatedly during the lecture in ff6','Library & Study','Aryabhatt Bhawan II',11,63,86,3,Network
'wifi becomes extremely slow near g2 between 14 00 and 16 00','Academic & Teaching','CL3',14,66,45,2,Network
'water is leaking into the corridor on ground floor','General & Utilities','Water cooler',18,17,71,4,Water
'floor near aryabhatt bhawan iii is dirty and slippery','General & Utilities','Aryabhatt Bhawan III',9,63,36,3,Cleanliness
'projector hdmi port is loose in ts17 and the room is overcrowded','Labs & Research','A2/1',14,36,40,1,Infrastructure
'wifi becomes extremely slow near g2 between 9 00 and 11 00 please fix urgently while the wifi is also unstable','Labs & Research','Aryabhatt Bhawan II',9,54,63,3,Network
'broken writing desk is blocking the aisle in g2','Academic & Teaching','A2/2',11,49,57,1,Infrastructure
'internet disconnects repeatedly during the lecture in g2 students cannot continue class','Library & Study','Aryabhatt Bhawan II',10,50,49,4,Network
'very weak wifi signal on ground floor of aryabhatt bhawan ii','Library & Study','Aryabhatt Bhawan II',12,52,55,4,Network
'low water pressure reported around swimming pool','General & Utilities','Swimming Pool',18,49,76,1,Water
'floor near h4 boys hostel is dirty and slippery and the room is overcrowded','General & Utilities','H4 Boys Hostel',13,61,58,2,Cleanliness
'water point near girls hostel is not operational','Sports & Recreation','Girls Hostel',15,71,84,3,Water
'billing queue reaches the stairwell near cafeteria / canteen this happens repeatedly and the room is overcrowded','Food','Cafeteria / Canteen',13,71,55,5,Canteen
'billing queue reaches the stairwell near cafeteria / canteen','Food','Cafeteria / Canteen',13,67,51,2,Cleanliness
'two ceiling fans are not working in ff6','Academic & Teaching','CL22',15,77,64,1,Electrical
'broken writing desk is blocking the aisle in ff6 and the room is overcrowded','Labs & Research','CL3',15,94,54,3,Infrastructure
'air conditioner stops cooling after noon on floor 1','Hostels','CL22',12,41,30,3,Cleanliness
'spill outside cl3 creates a safety hazard','Academic & Teaching','H4 Boys Hostel',17,65,32,1,Cleanliness
'low water pressure reported around swimming pool','General & Utilities','Swimming Pool',16,34,81,1,Water
'water is leaking into the corridor on floor 3','Sports & Recreation','Girls Hostel',13,63,67,2,Water
'network authentication fails for students around aryabhatt bhawan ii','Academic & Teaching','Aryabhatt Bhawan II',10,84,42,3,Network
'classroom door and several chairs need repair on floor 3','Academic & Teaching','A2/2',13,45,29,4,Other
'very weak wifi signal on floor 1 of cl15','Labs & Research','CL15',10,60,49,2,Network
'two ceiling fans are not working in ts17','Labs & Research','CL22',13,70,56,2,Electrical
'waiting time at annapurna / main mess is more than twenty minutes','Food','Annapurna / Main Mess',13,88,96,2,Canteen
'network authentication fails for students around aryabhatt bhawan ii','Academic & Teaching','Aryabhatt Bhawan II',10,53,35,3,Network
'wifi becomes extremely slow near ff6 between 14 00 and 16 00 near a water cooler','Academic & Teaching','Aryabhatt Bhawan II',14,58,62,2,Network
'water point near girls hostel is not operational','Sports & Recreation','Girls Hostel',18,81,80,2,Water
'three lab systems freeze during compilation in cl3 near a water cooler','Labs & Research','CL3',15,51,69,4,Lab_Equipment
'wifi becomes extremely slow near cl3 between 11 00 and 13 00','Library & Study','Aryabhatt Bhawan II',11,69,78,2,Network
'wifi becomes extremely slow near ts17 between 9 00 and 11 00','Academic & Teaching','Aryabhatt Bhawan II',9,60,73,4,Water
'very weak wifi signal on floor 2 of aryabhatt bhawan ii','Labs & Research','Aryabhatt Bhawan II',10,75,56,1,Network
'water is leaking into the corridor on floor 2','Hostels','Water cooler',14,72,80,2,Water
'water point near water cooler is not operational students cannot continue class','General & Utilities','Water cooler',8,90,65,5,Water
'broken writing desk is blocking the aisle in ff6','Labs & Research','A2/2',14,41,47,4,Infrastructure
'student common area is overcrowded after 13 00','Administration','Parking',13,91,42,2,Other
'network authentication fails for students around cl3','Labs & Research','CL3',11,100,44,1,Network
'internet disconnects repeatedly during the lecture in ff6','Academic & Teaching','LRC',10,57,45,3,Network
'classroom door and several chairs need repair on floor 4','Labs & Research','Aryabhatt Bhawan II',17,75,40,4,Infrastructure
'broken writing desk is blocking the aisle in cl15 please fix urgently','Labs & Research','CL3',11,61,62,3,Infrastructure
'network authentication fails for students around aryabhatt bhawan ii','Labs & Research','Aryabhatt Bhawan II',14,91,43,2,Network
'computer fails to boot during practical class in cs1','Labs & Research','ECE Labs',11,50,67,4,Network
'internet disconnects repeatedly during the lecture in ts17','Labs & Research','CL3',14,91,30,2,Network
'network authentication fails for students around cl3 students cannot continue class','Labs & Research','CL3',10,78,42,2,Network
'wifi becomes extremely slow near cl22 between 10 00 and 12 00','Library & Study','Aryabhatt Bhawan II',10,68,63,3,Network
'classroom door and several chairs need repair on floor 1 near a water cooler','Labs & Research','Aryabhatt Bhawan II',18,87,94,4,Infrastructure
'two ceiling fans are not working in ff6 beside the canteen queue','Academic & Teaching','CL22',18,33,74,2,Electrical
'monitor and keyboard are not detected at workstation in ts17 while the wifi is also unstable','Labs & Research','CL22',18,70,53,1,Lab_Equipment
'very weak wifi signal on floor 2 of aryabhatt bhawan ii and the room is overcrowded','Academic & Teaching','Aryabhatt Bhawan II',14,100,66,1,Network
'projector hdmi port is loose in cl22 beside the canteen queue','Labs & Research','A2/2',11,52,65,5,Infrastructure
'spill outside cl15 creates a safety hazard','General & Utilities','Aryabhatt Bhawan III',8,34,48,2,Cleanliness
'network authentication fails for students around cl15','Labs & Research','CL15',10,51,26,4,Network
'billing queue reaches the stairwell near annapurna / main mess after a power interruption','Food','Annapurna / Main Mess',13,64,50,2,Canteen
'billing queue reaches the stairwell near cafeteria / canteen','Food','Cafeteria / Canteen',14,73,66,2,Canteen
'spill outside cs1 creates a safety hazard','Academic & Teaching','Washrooms',9,76,58,1,Infrastructure
'wifi becomes extremely slow near ff6 between 10 00 and 12 00 beside the canteen queue','Academic & Teaching','CL3',10,84,60,3,Network
'very weak wifi signal on floor 3 of cl15 students cannot continue class','Labs & Research','CL15',10,81,40,1,Network
'wifi becomes extremely slow near g2 between 10 00 and 12 00','Labs & Research','Aryabhatt Bhawan II',10,97,64,2,Network
'floor near washrooms is dirty and slippery','Academic & Teaching','Washrooms',8,93,54,2,Cleanliness
'floor near washrooms is dirty and slippery','General & Utilities','Washrooms',9,33,75,2,Cleanliness
'network authentication fails for students around cl15','Academic & Teaching','CL15',11,63,45,2,Network
'broken writing desk is blocking the aisle in ff6','Labs & Research','CL3',15,23,47,5,Infrastructure
'network authentication fails for students around aryabhatt bhawan ii','Library & Study','Aryabhatt Bhawan II',9,57,70,2,Network
'laboratory equipment reports a calibration error in ts17','Labs & Research','CL3',14,62,26,2,Lab_Equipment
'three lab systems freeze during compilation in ff6 beside the canteen queue','Labs & Research','CL1',10,68,24,4,Lab_Equipment
'power socket near the desk is unsafe in ff6 after a power interruption','Hostels','H5 Boys Hostel',11,13,96,3,Electrical
'internet disconnects repeatedly during the lecture in ts17','Labs & Research','Aryabhatt Bhawan II',10,84,67,2,Other
'monitor and keyboard are not detected at workstation in cl15','Labs & Research','ECE Labs',14,67,75,3,Lab_Equipment
'very weak wifi signal on ground floor of cl3 this happens repeatedly','Academic & Teaching','CL3',10,92,50,2,Network
'classroom door and several chairs need repair on floor 1','Labs & Research','Aryabhatt Bhawan II',13,75,20,3,Infrastructure
'network authentication fails for students around aryabhatt bhawan ii','Academic & Teaching','Aryabhatt Bhawan II',10,100,72,3,Network
'waiting time at annapurna / main mess is more than twenty minutes','Food','Annapurna / Main Mess',14,50,37,2,Other
'broken writing desk is blocking the aisle in ff6 students cannot continue class','Labs & Research','Aryabhatt Bhawan II',12,30,55,4,Infrastructure
'internet disconnects repeatedly during the lecture in cr425','Library & Study','Aryabhatt Bhawan II',12,100,53,4,Network
'network authentication fails for students around cl3','Academic & Teaching','CL3',10,68,24,2,Network
'power socket near the desk is unsafe in g2','Academic & Teaching','H5 Boys Hostel',11,16,60,3,Electrical
'floor near washrooms is dirty and slippery','General & Utilities','Washrooms',8,51,93,4,Cleanliness
'three lab systems freeze during compilation in cl15 please fix urgently','Labs & Research','ECE Labs',18,77,35,4,Lab_Equipment
'broken writing desk is blocking the aisle in cr425','Labs & Research','CL3',8,62,52,2,Infrastructure
'canteen queue is very long at 12 00 with one counter open and the room is overcrowded','Food','Cafeteria / Canteen',12,88,24,1,Canteen
'washroom near ff6 has not been cleaned today beside the canteen queue','Hostels','Aryabhatt Bhawan III',11,55,53,2,Cleanliness
'food counter is overcrowded between 14 00 and 16 00 after a power interruption','Food','Annapurna / Main Mess',14,100,57,3,Canteen
'broken writing desk is blocking the aisle in cl15','Academic & Teaching','Aryabhatt Bhawan II',14,51,66,5,Infrastructure
'classroom door and several chairs need repair on floor 1','Labs & Research','Aryabhatt Bhawan II',8,69,32,1,Infrastructure
'floor near aryabhatt bhawan iii is dirty and slippery','General & Utilities','Aryabhatt Bhawan III',8,54,37,3,Cleanliness
'wifi becomes extremely slow near cl3 between 9 00 and 11 00 beside the canteen queue','Library & Study','CL3',9,94,48,2,Network
'wifi becomes extremely slow near cl3 between 10 00 and 12 00','Academic & Teaching','Aryabhatt Bhawan II',10,72,91,1,Network
'network authentication fails for students around cl3','Academic & Teaching','CL3',10,75,75,3,Cleanliness
'projector in cr425 switches off after ten minutes and the room is overcrowded','Labs & Research','Aryabhatt Bhawan II',10,94,61,2,Infrastructure
'projector hdmi port is loose in g2 this happens repeatedly','Academic & Teaching','A2/1',9,61,35,5,Infrastructure
'wifi becomes extremely slow near g2 between 10 00 and 12 00 beside the canteen queue','Labs & Research','Aryabhatt Bhawan II',10,70,80,4,Network
'wifi becomes extremely slow near cr425 between 11 00 and 13 00 after a power interruption','Academic & Teaching','LRC',11,82,48,2,Network
'internet disconnects repeatedly during the lecture in cl3','Labs & Research','LRC',12,90,68,1,Network
'waiting time at annapurna / main mess is more than twenty minutes beside the canteen queue','Food','Annapurna / Main Mess',13,71,40,5,Canteen
'projector hdmi port is loose in cs1 this happens repeatedly','Labs & Research','CL3',17,33,68,2,Infrastructure
'broken writing desk is blocking the aisle in cl15','Labs & Research','CL3',11,5,37,1,Infrastructure
'signage is missing for cr425 on floor 4','Sports & Recreation','Auditorium',18,47,62,3,Other
'drinking water cooler near cr425 is empty students cannot continue class after a power interruption','Sports & Recreation','Water cooler',10,44,74,4,Water
'classroom door and several chairs need repair on floor 2','Labs & Research','A2/2',16,80,60,4,Infrastructure
'wifi becomes extremely slow near cl22 between 9 00 and 11 00 near a water cooler','Academic & Teaching','CL15',9,62,46,4,Network
'low water pressure reported around water cooler','Hostels','Water cooler',16,74,59,2,Water
'unclassified campus issue reported around auditorium students cannot continue class','Sports & Recreation','Auditorium',15,51,61,2,Other
'waiting time at cafeteria / canteen is more than twenty minutes','Food','Cafeteria / Canteen',14,67,75,1,Canteen
'projector in ff6 switches off after ten minutes','Labs & Research','Aryabhatt Bhawan II',14,22,41,2,Infrastructure
'wifi becomes extremely slow near cl3 between 10 00 and 12 00 while the wifi is also unstable','Academic & Teaching','Aryabhatt Bhawan II',10,98,40,3,Network
'wifi becomes extremely slow near cr425 between 10 00 and 12 00','Library & Study','CL15',10,90,61,2,Network
'canteen queue is very long at 13 00 with one counter open','Food','Annapurna / Main Mess',13,100,87,4,Water
'network authentication fails for students around cl3','Labs & Research','CL3',10,72,89,2,Network
'billing queue reaches the stairwell near annapurna / main mess and the room is overcrowded','Food','Annapurna / Main Mess',13,90,56,1,Canteen
'lights flicker repeatedly inside ff6 while the wifi is also unstable','Hostels','CL22',10,59,96,3,Electrical
'power socket near the desk is unsafe in cs1','Academic & Teaching','H5 Boys Hostel',14,67,87,3,Electrical
'wifi becomes extremely slow near ff6 between 12 00 and 14 00 while the wifi is also unstable','Academic & Teaching','Aryabhatt Bhawan II',12,77,74,3,Network
'broken writing desk is blocking the aisle in ts17 students cannot continue class','Academic & Teaching','A2/1',17,69,61,2,Infrastructure
'canteen queue is very long at 13 00 with one counter open','Food','Annapurna / Main Mess',13,65,44,3,Canteen
'three lab systems freeze during compilation in cl22 while the wifi is also unstable','Labs & Research','CL15',15,96,58,1,Lab_Equipment
'food counter is overcrowded between 13 00 and 15 00','Food','Annapurna / Main Mess',13,81,71,5,Canteen
'computer fails to boot during practical class in cs1','Labs & Research','CL15',14,37,46,2,Lab_Equipment
'drinking water cooler near g2 is empty','Sports & Recreation','Swimming Pool',9,62,51,2,Water
'spill outside cl3 creates a safety hazard','General & Utilities','H4 Boys Hostel',8,68,56,2,Cleanliness
'power socket near the desk is unsafe in cl22','Labs & Research','CL22',14,47,32,4,Electrical
'wifi becomes extremely slow near cl15 between 11 00 and 13 00 after a power interruption','Library & Study','CL15',11,37,50,4,Network
'classroom door and several chairs need repair on ground floor','Labs & Research','A2/2',8,37,53,3,Infrastructure
'low water pressure reported around swimming pool','Sports & Recreation','Swimming Pool',16,67,41,2,Water
'spill outside cl22 creates a safety hazard please fix urgently after a power interruption','General & Utilities','Aryabhatt Bhawan III',18,80,50,1,Cleanliness
'very weak wifi signal on floor 1 of lrc','Labs & Research','LRC',12,78,41,2,Network
'wifi becomes extremely slow near cr425 between 10 00 and 12 00','Academic & Teaching','LRC',10,100,40,2,Network
'wifi becomes extremely slow near g2 between 10 00 and 12 00 beside the canteen queue','Library & Study','LRC',10,88,54,3,Network
'projector in ts17 switches off after ten minutes near a water cooler','Labs & Research','Aryabhatt Bhawan II',15,53,64,4,Infrastructure
'very weak wifi signal on floor 2 of cl3','Academic & Teaching','CL3',10,63,67,1,Network
'canteen queue is very long at 13 00 with one counter open','Food','Annapurna / Main Mess',13,66,60,2,Canteen
'food counter is overcrowded between 13 00 and 15 00','Food','Annapurna / Main Mess',13,85,54,2,Canteen
'wifi becomes extremely slow near cr425 between 11 00 and 13 00','Library & Study','CL3',11,80,66,1,Network
'food counter is overcrowded between 12 00 and 14 00','Food','Annapurna / Main Mess',12,63,58,1,Canteen
'waiting time at cafeteria / canteen is more than twenty minutes','Food','Cafeteria / Canteen',13,44,70,1,Canteen
'broken writing desk is blocking the aisle in cs1 beside the canteen queue','Academic & Teaching','A2/2',16,55,44,4,Infrastructure
'canteen queue is very long at 13 00 with one counter open','Food','Cafeteria / Canteen',13,86,42,1,Canteen
'internet disconnects repeatedly during the lecture in cl15','Academic & Teaching','CL15',10,89,71,2,Network
'wifi becomes extremely slow near cl22 between 9 00 and 11 00','Academic & Teaching','CL15',9,100,38,1,Network
'floor near washrooms is dirty and slippery','Academic & Teaching','Washrooms',9,36,72,4,Cleanliness
'wifi becomes extremely slow near g2 between 10 00 and 12 00','Academic & Teaching','CL3',10,68,87,4,Network
'projector hdmi port is loose in g2','Academic & Teaching','A2/1',8,56,66,2,Infrastructure
'laboratory equipment reports a calibration error in ts17','Labs & Research','ECE Labs',9,58,56,2,Lab_Equipment
'computer fails to boot during practical class in ff6 please fix urgently','Labs & Research','CL1',11,87,64,3,Lab_Equipment
'laboratory equipment reports a calibration error in cl15','Labs & Research','CL1',9,61,38,1,Lab_Equipment
'air conditioner stops cooling after noon on floor 4','Academic & Teaching','A2/1',8,33,82,1,Electrical
'wifi becomes extremely slow near cs1 between 9 00 and 11 00','Library & Study','LRC',9,71,47,3,Network
'internet disconnects repeatedly during the lecture in ts17','Library & Study','CL15',10,52,71,5,Network
'very weak wifi signal on ground floor of lrc this happens repeatedly','Academic & Teaching','LRC',12,60,57,1,Network
'air conditioner stops cooling after noon on floor 1','Hostels','A2/1',8,47,65,3,Electrical
'projector in ts17 switches off after ten minutes this happens repeatedly after a power interruption','Academic & Teaching','A2/1',16,51,53,1,Infrastructure
'laboratory equipment reports a calibration error in cl3','Labs & Research','CL15',15,49,49,3,Lab_Equipment
'water is leaking into the corridor on floor 3 please fix urgently','Hostels','Water cooler',8,31,76,1,Water
'student common area is overcrowded after 14 00','General & Utilities','Administration Block',14,71,88,4,Other
'projector in cl3 switches off after ten minutes','Labs & Research','Aryabhatt Bhawan II',15,40,52,5,Infrastructure
'wifi becomes extremely slow near cs1 between 9 00 and 11 00','Labs & Research','Aryabhatt Bhawan II',9,56,80,3,Network
'garbage is overflowing in the corridor on ground floor','Academic & Teaching','Washrooms',14,23,52,4,Cleanliness
'lights flicker repeatedly inside ts17','Academic & Teaching','CL22',12,32,31,4,Electrical
'network authentication fails for students around cl15','Academic & Teaching','CL15',10,73,47,2,Network
'laboratory equipment reports a calibration error in cl22 students cannot continue class','Labs & Research','CL1',10,25,37,1,Lab_Equipment
'garbage is overflowing in the corridor on floor 3 after a power interruption','Hostels','H4 Boys Hostel',17,63,42,3,Cleanliness
'wifi becomes extremely slow near cl3 between 11 00 and 13 00','Academic & Teaching','CL15',11,87,52,4,Network
'canteen queue is very long at 13 00 with one counter open please fix urgently','Food','Cafeteria / Canteen',13,84,62,4,Canteen
'network authentication fails for students around cl15 and the room is overcrowded','Labs & Research','CL15',12,66,27,2,Network
'lights flicker repeatedly inside cl15','Labs & Research','CL22',18,40,49,4,Electrical
'garbage is overflowing in the corridor on floor 4 students cannot continue class','Hostels','Washrooms',17,49,52,2,Cleanliness
'broken writing desk is blocking the aisle in cr425','Labs & Research','A2/2',8,66,50,4,Infrastructure
'power socket near the desk is unsafe in cr425','Labs & Research','H5 Boys Hostel',15,78,71,2,Electrical
'washroom near g2 has not been cleaned today this happens repeatedly','Academic & Teaching','Aryabhatt Bhawan III',14,24,78,5,Cleanliness
'very weak wifi signal on floor 2 of cl3 while the wifi is also unstable','Academic & Teaching','CL3',11,56,55,1,Network
'wifi becomes extremely slow near g2 between 10 00 and 12 00 students cannot continue class','Labs & Research','Aryabhatt Bhawan II',10,82,63,2,Network
'network authentication fails for students around cl15','Academic & Teaching','CL15',14,74,50,5,Network
'lights flicker repeatedly inside ff6','Labs & Research','H5 Boys Hostel',17,66,52,1,Electrical
'internet disconnects repeatedly during the lecture in ts17','Academic & Teaching','CL15',12,100,55,3,Canteen
'projector hdmi port is loose in ff6','Labs & Research','A2/2',8,55,43,4,Infrastructure
'very weak wifi signal on floor 1 of cl3 please fix urgently','Library & Study','CL3',12,86,56,4,Network
'monitor and keyboard are not detected at workstation in cl22','Labs & Research','ECE Labs',10,37,66,5,Infrastructure
'classroom door and several chairs need repair on floor 1 while the wifi is also unstable','Academic & Teaching','CL3',8,28,67,2,Infrastructure
'classroom door and several chairs need repair on floor 2','Academic & Teaching','CL3',11,57,43,1,Infrastructure
'floor near aryabhatt bhawan iii is dirty and slippery','General & Utilities','Aryabhatt Bhawan III',8,42,53,2,Cleanliness
'projector hdmi port is loose in cs1 and the room is overcrowded','Academic & Teaching','Aryabhatt Bhawan II',14,36,53,2,Infrastructure
'wifi becomes extremely slow near cs1 between 10 00 and 12 00','Labs & Research','LRC',10,100,72,2,Network
'water is leaking into the corridor on floor 2 please fix urgently near a water cooler','Hostels','Girls Hostel',9,46,58,2,Water
'water is leaking into the corridor on floor 1 please fix urgently','General & Utilities','Water cooler',17,46,64,3,Water
'low water pressure reported around girls hostel','Sports & Recreation','Girls Hostel',12,78,69,3,Water
'very weak wifi signal on floor 2 of cl15','Labs & Research','CL15',14,100,34,3,Network
'two ceiling fans are not working in ff6','Hostels','H5 Boys Hostel',13,68,76,1,Electrical
'broken writing desk is blocking the aisle in cl22','Labs & Research','Aryabhatt Bhawan II',16,59,63,4,Infrastructure
'projector in cl3 switches off after ten minutes','Academic & Teaching','CL3',12,75,28,5,Infrastructure
'internet disconnects repeatedly during the lecture in ff6 this happens repeatedly','Labs & Research','CL15',10,85,70,1,Network
'wifi becomes extremely slow near cl3 between 10 00 and 12 00','Library & Study','Aryabhatt Bhawan II',10,91,39,3,Network
'wifi becomes extremely slow near cl15 between 14 00 and 16 00','Labs & Research','Aryabhatt Bhawan II',14,47,57,2,Network
'water is leaking into the corridor on floor 1','Sports & Recreation','Water cooler',15,78,37,3,Water
'laboratory equipment reports a calibration error in g2','Labs & Research','CL3',13,43,48,2,Lab_Equipment
'wifi becomes extremely slow near ts17 between 12 00 and 14 00','Library & Study','Aryabhatt Bhawan II',12,100,43,4,Network
'monitor and keyboard are not detected at workstation in cl3','Labs & Research','ECE Labs',17,82,67,2,Lab_Equipment
'computer fails to boot during practical class in ff6 students cannot continue class','Labs & Research','CL3',16,49,66,3,Lab_Equipment
'projector in g2 switches off after ten minutes','Academic & Teaching','CL3',17,40,75,4,Infrastructure
'very weak wifi signal on floor 1 of cl15 this happens repeatedly','Library & Study','CL15',14,87,36,1,Network
'wifi becomes extremely slow near g2 between 9 00 and 11 00','Labs & Research','CL3',9,74,58,1,Network
'billing queue reaches the stairwell near annapurna / main mess','Food','Annapurna / Main Mess',13,100,39,5,Canteen
'food counter is overcrowded between 13 00 and 15 00 beside the canteen queue','Food','Annapurna / Main Mess',13,100,46,3,Canteen
'network authentication fails for students around cl15','Labs & Research','CL15',11,32,48,3,Network
'very weak wifi signal on floor 1 of lrc','Academic & Teaching','LRC',9,63,20,2,Network
'floor near h4 boys hostel is dirty and slippery','Hostels','H4 Boys Hostel',11,8,36,2,Cleanliness
'broken writing desk is blocking the aisle in cr425','Labs & Research','CL3',15,35,45,2,Infrastructure
'garbage is overflowing in the corridor on floor 1','Academic & Teaching','H4 Boys Hostel',13,44,37,3,Cleanliness
'wifi becomes extremely slow near cl22 between 11 00 and 13 00','Academic & Teaching','CL3',11,67,77,2,Cleanliness
'classroom door and several chairs need repair on floor 1 while the wifi is also unstable','Labs & Research','CL3',13,43,55,3,Infrastructure
'projector hdmi port is loose in cr425','Academic & Teaching','Aryabhatt Bhawan II',18,48,76,1,Infrastructure
'internet disconnects repeatedly during the lecture in cl15','Academic & Teaching','LRC',9,89,48,4,Network
'power socket near the desk is unsafe in ts17','Academic & Teaching','H5 Boys Hostel',13,69,50,3,Electrical
'broken writing desk is blocking the aisle in cl22','Academic & Teaching','A2/2',18,65,42,2,Infrastructure
'air conditioner stops cooling after noon on floor 1','Labs & Research','CL22',9,45,54,4,Electrical
'classroom door and several chairs need repair on floor 2','Academic & Teaching','A2/1',9,41,53,2,Infrastructure
'broken writing desk is blocking the aisle in ts17','Academic & Teaching','A2/1',8,11,56,2,Infrastructure
'internet disconnects repeatedly during the lecture in g2 near a water cooler','Labs & Research','LRC',11,64,34,3,Network
'projector hdmi port is loose in cl3 after a power interruption','Labs & Research','A2/2',16,59,45,2,Infrastructure
'internet disconnects repeatedly during the lecture in cs1','Academic & Teaching','Aryabhatt Bhawan II',10,100,91,3,Network
'monitor and keyboard are not detected at workstation in cl3','Labs & Research','CL22',17,78,69,3,Lab_Equipment
'projector in ff6 switches off after ten minutes','Academic & Teaching','A2/1',14,62,78,4,Infrastructure
'food counter is overcrowded between 12 00 and 14 00','Food','Cafeteria / Canteen',12,39,66,4,Canteen
'very weak wifi signal on floor 1 of cl3','Labs & Research','CL3',14,86,64,3,Network
'food counter is overcrowded between 14 00 and 16 00','Food','Cafeteria / Canteen',14,41,24,3,Canteen
'drinking water cooler near cl15 is empty','General & Utilities','Swimming Pool',18,48,78,4,Water
'washroom near cl22 has not been cleaned today','Academic & Teaching','Washrooms',12,79,94,5,Cleanliness
'canteen queue is very long at 14 00 with one counter open while the wifi is also unstable','Food','Annapurna / Main Mess',14,100,31,5,Canteen
'internet disconnects repeatedly during the lecture in ff6','Academic & Teaching','Aryabhatt Bhawan II',10,85,65,2,Network
'billing queue reaches the stairwell near annapurna / main mess','Food','Annapurna / Main Mess',14,100,36,5,Canteen
'very weak wifi signal on floor 1 of lrc','Library & Study','LRC',10,71,34,4,Network
'broken writing desk is blocking the aisle in g2 please fix urgently','Academic & Teaching','CL3',9,45,61,1,Infrastructure
'monitor and keyboard are not detected at workstation in cs1','Labs & Research','CL1',15,91,41,4,Lab_Equipment
'billing queue reaches the stairwell near cafeteria / canteen','Food','Cafeteria / Canteen',12,85,58,3,Canteen
'wifi becomes extremely slow near cs1 between 10 00 and 12 00','Labs & Research','Aryabhatt Bhawan II',10,83,43,2,Network
'wifi becomes extremely slow near cl22 between 10 00 and 12 00','Academic & Teaching','CL15',10,80,45,2,Network
'internet disconnects repeatedly during the lecture in ff6','Labs & Research','LRC',10,60,51,2,Water
'very weak wifi signal on floor 2 of cl3','Labs & Research','CL3',11,84,36,2,Network
'garbage is overflowing in the corridor on floor 1 this happens repeatedly','Academic & Teaching','Washrooms',14,55,34,4,Cleanliness
'internet disconnects repeatedly during the lecture in cs1 students cannot continue class and the room is overcrowded','Library & Study','CL15',11,82,81,5,Network
'projector hdmi port is loose in cr425','Labs & Research','A2/1',18,16,45,3,Infrastructure
'lights flicker repeatedly inside cs1','Hostels','H5 Boys Hostel',16,79,70,1,Water
'wifi becomes extremely slow near cl22 between 11 00 and 13 00','Library & Study','LRC',11,63,38,2,Network
'billing queue reaches the stairwell near cafeteria / canteen','Food','Cafeteria / Canteen',13,80,78,4,Canteen
'wifi becomes extremely slow near cl15 between 12 00 and 14 00','Labs & Research','Aryabhatt Bhawan II',12,100,86,3,Network
'very weak wifi signal on ground floor of cl3','Library & Study','CL3',10,69,35,3,Network
'internet disconnects repeatedly during the lecture in g2','Labs & Research','CL3',10,84,82,3,Network
'parking congestion blocks the entrance near administration block this happens repeatedly','General & Utilities','Administration Block',15,63,28,4,Other
'water point near girls hostel is not operational','Sports & Recreation','Girls Hostel',13,93,72,3,Water
'floor near h4 boys hostel is dirty and slippery','Academic & Teaching','H4 Boys Hostel',13,45,43,3,Cleanliness
'very weak wifi signal on floor 1 of aryabhatt bhawan ii','Library & Study','Aryabhatt Bhawan II',9,100,69,3,Network
'network authentication fails for students around cl3','Labs & Research','CL3',11,100,82,4,Network
'wifi becomes extremely slow near cr425 between 11 00 and 13 00','Library & Study','LRC',11,60,43,2,Network
'wifi becomes extremely slow near cr425 between 11 00 and 13 00','Academic & Teaching','LRC',11,70,37,5,Network
'projector in cs1 switches off after ten minutes near a water cooler','Academic & Teaching','A2/2',10,84,54,2,Infrastructure
'projector in g2 switches off after ten minutes this happens repeatedly','Academic & Teaching','A2/1',8,34,38,5,Infrastructure
'projector in cl15 switches off after ten minutes','Labs & Research','CL3',11,66,61,2,Infrastructure
'billing queue reaches the stairwell near cafeteria / canteen while the wifi is also unstable','Food','Cafeteria / Canteen',14,59,64,3,Canteen
'lights flicker repeatedly inside cr425','Academic & Teaching','CL22',14,48,50,3,Electrical
'projector hdmi port is loose in cl15','Labs & Research','A2/2',17,31,45,3,Infrastructure
'broken writing desk is blocking the aisle in cr425','Academic & Teaching','CL3',16,79,46,2,Infrastructure
'billing queue reaches the stairwell near cafeteria / canteen while the wifi is also unstable','Food','Cafeteria / Canteen',13,73,51,1,Canteen
'water is leaking into the corridor on floor 4','Sports & Recreation','Swimming Pool',15,63,50,5,Water
'broken writing desk is blocking the aisle in cl22','Academic & Teaching','CL3',18,62,55,2,Infrastructure
'classroom door and several chairs need repair on floor 2','Academic & Teaching','A2/1',13,73,66,3,Infrastructure
'very weak wifi signal on floor 3 of lrc','Library & Study','LRC',9,82,41,4,Network
'very weak wifi signal on floor 2 of aryabhatt bhawan ii students cannot continue class','Labs & Research','Aryabhatt Bhawan II',14,100,42,1,Network
'wifi becomes extremely slow near cr425 between 9 00 and 11 00','Labs & Research','CL15',9,55,20,1,Network
'internet disconnects repeatedly during the lecture in cr425 and the room is overcrowded','Labs & Research','CL15',10,84,58,1,Network
'broken writing desk is blocking the aisle in ts17','Labs & Research','CL3',8,85,79,1,Infrastructure
'network authentication fails for students around aryabhatt bhawan ii beside the canteen queue','Academic & Teaching','Aryabhatt Bhawan II',10,71,37,2,Network
'two ceiling fans are not working in ff6','Academic & Teaching','CL22',10,81,74,1,Electrical
'network authentication fails for students around cl15','Academic & Teaching','CL15',12,65,32,1,Network
'computer fails to boot during practical class in cr425 near a water cooler','Labs & Research','CL3',15,93,32,3,Lab_Equipment
'air conditioner stops cooling after noon on floor 2 and the room is overcrowded','Academic & Teaching','H5 Boys Hostel',11,61,85,2,Electrical
'washroom near cl3 has not been cleaned today','General & Utilities','Washrooms',13,56,47,1,Cleanliness
'wifi becomes extremely slow near cl3 between 12 00 and 14 00','Academic & Teaching','CL15',12,78,56,3,Network
'very weak wifi signal on floor 4 of cl3','Academic & Teaching','CL3',12,84,39,1,Network
'projector hdmi port is loose in ff6','Labs & Research','CL3',14,68,43,3,Infrastructure
'spill outside cr425 creates a safety hazard','Academic & Teaching','Aryabhatt Bhawan III',14,67,56,2,Cleanliness
'internet disconnects repeatedly during the lecture in cr425','Labs & Research','CL15',11,92,61,2,Network
'network authentication fails for students around lrc','Labs & Research','LRC',10,91,31,3,Network
'internet disconnects repeatedly during the lecture in ff6','Library & Study','CL15',11,99,57,3,Network
'broken writing desk is blocking the aisle in cl22','Academic & Teaching','A2/1',15,52,63,2,Infrastructure
'classroom door and several chairs need repair on floor 4','Labs & Research','CL3',13,40,72,1,Infrastructure
'lights flicker repeatedly inside cr425 near a water cooler','Labs & Research','CL22',8,86,95,2,Electrical
'broken writing desk is blocking the aisle in ff6','Academic & Teaching','Aryabhatt Bhawan II',14,65,43,3,Infrastructure
'three lab systems freeze during compilation in cs1 beside the canteen queue','Labs & Research','ECE Labs',13,63,40,1,Lab_Equipment
'spill outside cs1 creates a safety hazard','General & Utilities','H4 Boys Hostel',14,58,63,3,Electrical
'washroom near cs1 has not been cleaned today this happens repeatedly','General & Utilities','H4 Boys Hostel',10,62,54,5,Cleanliness
'projector in cr425 switches off after ten minutes this happens repeatedly','Academic & Teaching','CL3',8,63,43,2,Network
'air conditioner stops cooling after noon on ground floor','Labs & Research','CL22',12,63,46,1,Electrical
'network authentication fails for students around cl3','Academic & Teaching','CL3',10,93,79,1,Network
'wifi becomes extremely slow near cl3 between 12 00 and 14 00 near a water cooler','Labs & Research','LRC',12,85,34,2,Network
'projector hdmi port is loose in g2 while the wifi is also unstable','Academic & Teaching','A2/1',16,13,81,1,Infrastructure
'three lab systems freeze during compilation in ts17','Labs & Research','CL15',11,46,52,1,Lab_Equipment
'wifi becomes extremely slow near cl22 between 14 00 and 16 00 please fix urgently','Labs & Research','CL15',14,99,43,2,Network
'canteen queue is very long at 12 00 with one counter open','Food','Cafeteria / Canteen',12,81,60,2,Canteen
'classroom door and several chairs need repair on floor 4','Academic & Teaching','A2/1',9,100,59,5,Infrastructure
'food counter is overcrowded between 13 00 and 15 00 please fix urgently beside the canteen queue','Food','Annapurna / Main Mess',13,86,44,2,Canteen
'billing queue reaches the stairwell near cafeteria / canteen','Food','Cafeteria / Canteen',13,84,57,2,Canteen
'computer fails to boot during practical class in ff6 beside the canteen queue','Labs & Research','CL1',15,42,50,1,Lab_Equipment
'lights flicker repeatedly inside g2','Academic & Teaching','H5 Boys Hostel',16,42,58,2,Electrical
'internet disconnects repeatedly during the lecture in g2','Library & Study','LRC',10,60,74,2,Network
'spill outside cl15 creates a safety hazard while the wifi is also unstable','Academic & Teaching','Aryabhatt Bhawan III',12,61,51,2,Cleanliness
'projector hdmi port is loose in cr425 this happens repeatedly','Academic & Teaching','A2/2',14,76,62,2,Infrastructure
'broken writing desk is blocking the aisle in g2 while the wifi is also unstable','Labs & Research','CL3',12,97,66,1,Infrastructure
'waiting time at cafeteria / canteen is more than twenty minutes','Food','Cafeteria / Canteen',13,71,48,2,Canteen
'very weak wifi signal on ground floor of cl3 this happens repeatedly','Labs & Research','CL3',10,80,77,3,Network
'monitor and keyboard are not detected at workstation in cl3','Labs & Research','CL1',14,98,68,2,Lab_Equipment
'wifi becomes extremely slow near cl15 between 9 00 and 11 00 near a water cooler','Library & Study','CL3',9,77,73,5,Network
'very weak wifi signal on floor 4 of cl3 this happens repeatedly','Academic & Teaching','CL3',11,55,41,3,Network
'billing queue reaches the stairwell near annapurna / main mess students cannot continue class and the room is overcrowded','Food','Annapurna / Main Mess',14,61,61,3,Canteen
'network authentication fails for students around cl15','Labs & Research','CL15',12,59,40,4,Network
'wifi becomes extremely slow near cs1 between 11 00 and 13 00','Library & Study','Aryabhatt Bhawan II',11,88,52,3,Network
'air conditioner stops cooling after noon on floor 2','Labs & Research','CL22',15,24,65,2,Electrical
'washroom near ff6 has not been cleaned today','Hostels','H4 Boys Hostel',8,79,40,3,Cleanliness
'garbage is overflowing in the corridor on floor 1','Hostels','Washrooms',16,33,59,2,Cleanliness
'water is leaking into the corridor on ground floor','Hostels','Water cooler',16,72,75,3,Water
'broken writing desk is blocking the aisle in cl22','Labs & Research','A2/1',16,42,23,4,Cleanliness
'lights flicker repeatedly inside cr425','Labs & Research','A2/1',17,79,54,3,Electrical
'monitor and keyboard are not detected at workstation in cs1 after a power interruption','Labs & Research','CL3',18,24,57,2,Lab_Equipment
'waiting time at cafeteria / canteen is more than twenty minutes','Food','Cafeteria / Canteen',13,75,72,3,Canteen
'classroom door and several chairs need repair on floor 1 this happens repeatedly','Academic & Teaching','CL3',8,60,47,4,Infrastructure
'low water pressure reported around girls hostel students cannot continue class','General & Utilities','Girls Hostel',18,51,50,4,Water
'very weak wifi signal on floor 1 of lrc please fix urgently and the room is overcrowded','Library & Study','LRC',11,100,43,3,Network
'lights flicker repeatedly inside ts17 please fix urgently','Labs & Research','CL22',8,59,91,4,Water
'very weak wifi signal on floor 2 of lrc','Library & Study','LRC',10,100,63,4,Network
'laboratory equipment reports a calibration error in ff6','Labs & Research','CL3',10,45,42,3,Lab_Equipment
'spill outside cr425 creates a safety hazard','Academic & Teaching','H4 Boys Hostel',11,54,54,1,Cleanliness
'internet disconnects repeatedly during the lecture in cl3','Labs & Research','Aryabhatt Bhawan II',12,60,53,2,Network
'billing queue reaches the stairwell near annapurna / main mess','Food','Annapurna / Main Mess',13,76,64,4,Canteen
'three lab systems freeze during compilation in ts17','Labs & Research','ECE Labs',18,99,67,2,Lab_Equipment
'projector hdmi port is loose in cl3','Labs & Research','A2/1',16,45,37,2,Infrastructure
'very weak wifi signal on ground floor of cl3 please fix urgently','Library & Study','CL3',9,62,70,5,Network
'wifi becomes extremely slow near ts17 between 14 00 and 16 00','Library & Study','Aryabhatt Bhawan II',14,88,26,2,Network
'very weak wifi signal on floor 2 of cl15 and the room is overcrowded','Academic & Teaching','CL15',11,98,55,3,Network
'monitor and keyboard are not detected at workstation in cs1','Labs & Research','CL1',12,87,67,3,Lab_Equipment
'computer fails to boot during practical class in ff6 please fix urgently','Labs & Research','CL15',16,97,53,3,Lab_Equipment
'air conditioner stops cooling after noon on ground floor','Labs & Research','A2/1',12,54,61,4,Electrical
'network authentication fails for students around lrc','Library & Study','LRC',12,82,65,2,Network
'lights flicker repeatedly inside ts17 please fix urgently','Labs & Research','CL22',12,62,51,5,Electrical
'canteen queue is very long at 13 00 with one counter open','Food','Annapurna / Main Mess',13,95,56,1,Canteen
'internet disconnects repeatedly during the lecture in cl22 this happens repeatedly','Library & Study','CL3',10,100,37,3,Network
'garbage is overflowing in the corridor on floor 2 while the wifi is also unstable','Academic & Teaching','H4 Boys Hostel',15,58,63,2,Cleanliness
'wifi becomes extremely slow near ff6 between 10 00 and 12 00','Labs & Research','CL15',10,84,61,3,Network
'broken writing desk is blocking the aisle in ts17','Labs & Research','CL3',9,75,77,3,Infrastructure
'projector in cr425 switches off after ten minutes','Academic & Teaching','A2/2',18,51,69,2,Infrastructure
'projector hdmi port is loose in ff6','Academic & Teaching','CL3',8,62,47,3,Infrastructure
'laboratory equipment reports a calibration error in cl15','Labs & Research','CL1',15,68,81,2,Infrastructure
'signage is missing for g2 on floor 2 students cannot continue class after a power interruption','Administration','Administration Block',8,80,79,1,Other
'power socket near the desk is unsafe in cr425 this happens repeatedly after a power interruption','Labs & Research','CL22',18,5,55,2,Electrical
'classroom door and several chairs need repair on ground floor','Labs & Research','A2/1',18,20,64,4,Infrastructure
'broken writing desk is blocking the aisle in cr425','Academic & Teaching','CL3',15,69,57,3,Infrastructure
'broken writing desk is blocking the aisle in ts17','Academic & Teaching','A2/1',8,73,66,1,Infrastructure
'waiting time at cafeteria / canteen is more than twenty minutes near a water cooler','Food','Cafeteria / Canteen',13,73,21,4,Canteen
'wifi becomes extremely slow near g2 between 11 00 and 13 00 students cannot continue class','Labs & Research','CL15',11,81,56,4,Lab_Equipment
'canteen queue is very long at 14 00 with one counter open','Food','Cafeteria / Canteen',14,74,74,3,Canteen
'laboratory equipment reports a calibration error in cs1','Labs & Research','CL3',18,51,65,2,Lab_Equipment
'wifi becomes extremely slow near cl3 between 10 00 and 12 00','Library & Study','Aryabhatt Bhawan II',10,81,71,1,Network
'projector hdmi port is loose in cr425 near a water cooler','Labs & Research','A2/1',18,39,41,2,Infrastructure
'broken writing desk is blocking the aisle in g2 while the wifi is also unstable','Labs & Research','CL3',11,83,64,2,Infrastructure
'wifi becomes extremely slow near cs1 between 10 00 and 12 00 after a power interruption','Labs & Research','LRC',10,73,43,2,Network
'broken writing desk is blocking the aisle in cl15 and the room is overcrowded','Academic & Teaching','Aryabhatt Bhawan II',12,39,58,2,Infrastructure
'canteen queue is very long at 12 00 with one counter open please fix urgently','Food','Annapurna / Main Mess',12,90,62,1,Canteen
'billing queue reaches the stairwell near annapurna / main mess beside the canteen queue','Food','Annapurna / Main Mess',13,79,86,2,Network
'classroom door and several chairs need repair on floor 2 beside the canteen queue','Academic & Teaching','Aryabhatt Bhawan II',13,93,45,2,Infrastructure
'internet disconnects repeatedly during the lecture in cl22 and the room is overcrowded','Labs & Research','CL15',14,73,35,5,Network
'spill outside cl3 creates a safety hazard','Hostels','Washrooms',17,48,52,2,Cleanliness
'wifi becomes extremely slow near cl3 between 11 00 and 13 00','Library & Study','Aryabhatt Bhawan II',11,66,35,1,Network
'broken writing desk is blocking the aisle in g2','Academic & Teaching','A2/1',16,69,58,1,Infrastructure
'internet disconnects repeatedly during the lecture in ff6','Library & Study','LRC',11,68,72,1,Network
'spill outside cl15 creates a safety hazard','General & Utilities','Aryabhatt Bhawan III',10,61,40,4,Cleanliness
'laboratory equipment reports a calibration error in cl3','Labs & Research','ECE Labs',10,53,65,1,Lab_Equipment
'wifi becomes extremely slow near cl15 between 9 00 and 11 00 please fix urgently beside the canteen queue','Labs & Research','CL15',9,57,70,3,Network
'internet disconnects repeatedly during the lecture in ts17 and the room is overcrowded','Academic & Teaching','CL3',14,54,63,1,Network
'washroom near cl3 has not been cleaned today near a water cooler','General & Utilities','Aryabhatt Bhawan III',13,72,68,3,Cleanliness
'classroom door and several chairs need repair on ground floor near a water cooler','Labs & Research','A2/1',15,63,56,1,Infrastructure
'wifi becomes extremely slow near cs1 between 9 00 and 11 00','Library & Study','LRC',9,58,62,4,Network
'waiting time at annapurna / main mess is more than twenty minutes','Food','Annapurna / Main Mess',13,98,45,3,Canteen
'projector in cr425 switches off after ten minutes','Academic & Teaching','CL3',8,47,64,2,Infrastructure
'internet disconnects repeatedly during the lecture in g2 after a power interruption','Library & Study','CL15',10,98,20,4,Network
'projector in g2 switches off after ten minutes this happens repeatedly','Labs & Research','A2/1',10,71,47,2,Infrastructure
'spill outside cl22 creates a safety hazard','Hostels','Washrooms',15,39,70,3,Cleanliness
'monitor and keyboard are not detected at workstation in cl3 and the room is overcrowded','Labs & Research','CL3',15,73,52,2,Lab_Equipment
'internet disconnects repeatedly during the lecture in cl15','Academic & Teaching','Aryabhatt Bhawan II',14,94,74,2,Network
'projector hdmi port is loose in cl22','Academic & Teaching','Aryabhatt Bhawan II',18,44,29,4,Infrastructure
'very weak wifi signal on ground floor of aryabhatt bhawan ii','Labs & Research','Aryabhatt Bhawan II',14,66,71,2,Lab_Equipment
'laboratory equipment reports a calibration error in g2','Labs & Research','CL3',9,82,96,1,Lab_Equipment
'lights flicker repeatedly inside ff6','Academic & Teaching','H5 Boys Hostel',18,35,76,3,Electrical
'water is leaking into the corridor on floor 4 near a water cooler','Hostels','Swimming Pool',16,62,86,4,Water
'classroom door and several chairs need repair on floor 1 students cannot continue class','Academic & Teaching','A2/1',8,38,42,4,Infrastructure
'three lab systems freeze during compilation in cr425 please fix urgently','Labs & Research','CL15',11,42,96,2,Lab_Equipment
'very weak wifi signal on floor 4 of cl15','Academic & Teaching','CL15',14,96,67,2,Network
'network authentication fails for students around lrc while the wifi is also unstable','Library & Study','LRC',9,66,78,3,Network
'water is leaking into the corridor on floor 4','General & Utilities','Water cooler',11,56,70,3,Water
'monitor and keyboard are not detected at workstation in cl15 this happens repeatedly','Labs & Research','CL22',13,52,60,2,Lab_Equipment
'power socket near the desk is unsafe in g2','Hostels','H5 Boys Hostel',17,78,62,3,Electrical
'student common area is overcrowded after 11 00 this happens repeatedly','General & Utilities','Parking',11,26,50,1,Other
'water point near girls hostel is not operational this happens repeatedly','General & Utilities','Girls Hostel',18,80,54,3,Water
'classroom door and several chairs need repair on floor 3','Labs & Research','A2/2',14,42,63,4,Infrastructure
'waiting time at cafeteria / canteen is more than twenty minutes','Food','Cafeteria / Canteen',13,63,45,4,Canteen
'low water pressure reported around swimming pool','Sports & Recreation','Swimming Pool',13,54,35,4,Water
'network authentication fails for students around aryabhatt bhawan ii near a water cooler','Academic & Teaching','Aryabhatt Bhawan II',10,82,66,2,Network
'classroom door and several chairs need repair on floor 3','Labs & Research','A2/1',17,76,57,2,Infrastructure
'canteen queue is very long at 13 00 with one counter open','Food','Annapurna / Main Mess',13,80,51,4,Canteen
'network authentication fails for students around lrc','Academic & Teaching','LRC',11,42,56,3,Network
'projector hdmi port is loose in ff6','Labs & Research','CL3',8,31,44,2,Cleanliness
'internet disconnects repeatedly during the lecture in cl15','Academic & Teaching','LRC',10,81,55,2,Network
'canteen queue is very long at 14 00 with one counter open','Food','Cafeteria / Canteen',14,58,70,1,Canteen
'broken writing desk is blocking the aisle in g2 beside the canteen queue','Academic & Teaching','Aryabhatt Bhawan II',10,28,70,2,Infrastructure
'canteen queue is very long at 13 00 with one counter open','Food','Cafeteria / Canteen',13,66,62,1,Canteen
'food counter is overcrowded between 13 00 and 15 00','Food','Cafeteria / Canteen',13,89,66,4,Canteen
'broken writing desk is blocking the aisle in cr425','Academic & Teaching','Aryabhatt Bhawan II',8,74,51,4,Infrastructure
'waiting time at cafeteria / canteen is more than twenty minutes','Food','Cafeteria / Canteen',14,78,42,3,Network
'classroom door and several chairs need repair on ground floor while the wifi is also unstable','Academic & Teaching','A2/1',12,32,61,1,Infrastructure
'very weak wifi signal on floor 3 of cl15 please fix urgently','Academic & Teaching','CL15',9,91,57,2,Network
'water point near swimming pool is not operational','Sports & Recreation','Swimming Pool',16,62,36,2,Water
'monitor and keyboard are not detected at workstation in ts17','Labs & Research','CL15',16,52,68,1,Lab_Equipment
'lights flicker repeatedly inside cl15 please fix urgently after a power interruption','Academic & Teaching','H5 Boys Hostel',13,78,84,2,Electrical
'garbage is overflowing in the corridor on floor 2','Hostels','Aryabhatt Bhawan III',15,76,51,2,Cleanliness
'projector hdmi port is loose in ff6','Labs & Research','Aryabhatt Bhawan II',10,46,54,1,Infrastructure
'spill outside cl3 creates a safety hazard this happens repeatedly','Academic & Teaching','Aryabhatt Bhawan III',13,35,42,1,Cleanliness
'waiting time at annapurna / main mess is more than twenty minutes','Food','Annapurna / Main Mess',13,100,56,2,Canteen
'monitor and keyboard are not detected at workstation in cs1','Labs & Research','ECE Labs',13,19,58,1,Lab_Equipment
'air conditioner stops cooling after noon on floor 1 near a water cooler','Labs & Research','CL22',11,80,70,1,Electrical
'projector hdmi port is loose in cl15 please fix urgently','Academic & Teaching','A2/2',16,27,21,4,Infrastructure
'unclassified campus issue reported around auditorium near a water cooler','Administration','Auditorium',8,56,51,2,Other
'waiting time at cafeteria / canteen is more than twenty minutes students cannot continue class','Food','Cafeteria / Canteen',13,70,57,1,Canteen
'parking congestion blocks the entrance near auditorium please fix urgently','Administration','Auditorium',13,83,49,3,Other
'wifi becomes extremely slow near cs1 between 14 00 and 16 00','Library & Study','CL15',14,74,41,2,Lab_Equipment
'power socket near the desk is unsafe in ts17','Academic & Teaching','CL22',16,33,79,2,Electrical
'lights flicker repeatedly inside cl3','Academic & Teaching','A2/1',15,63,62,2,Electrical
'network authentication fails for students around cl15','Academic & Teaching','CL15',11,53,43,5,Network
'wifi becomes extremely slow near cr425 between 9 00 and 11 00','Academic & Teaching','LRC',9,93,68,4,Network
'wifi becomes extremely slow near ff6 between 14 00 and 16 00','Library & Study','CL15',14,100,82,2,Network
'canteen queue is very long at 12 00 with one counter open','Food','Annapurna / Main Mess',12,83,51,3,Canteen
'garbage is overflowing in the corridor on floor 2','General & Utilities','H4 Boys Hostel',16,39,36,4,Cleanliness
'projector in cr425 switches off after ten minutes after a power interruption','Academic & Teaching','A2/2',17,52,59,1,Infrastructure
'projector in ff6 switches off after ten minutes','Labs & Research','Aryabhatt Bhawan II',15,26,45,2,Infrastructure
'unclassified campus issue reported around administration block','Administration','Administration Block',12,73,53,5,Other
'projector hdmi port is loose in cl3','Labs & Research','A2/1',18,45,53,3,Infrastructure
'broken writing desk is blocking the aisle in cl3','Labs & Research','A2/2',15,58,66,1,Infrastructure
'projector hdmi port is loose in cl22','Labs & Research','Aryabhatt Bhawan II',17,63,45,5,Infrastructure
'network authentication fails for students around lrc','Labs & Research','LRC',14,59,72,1,Network
'wifi becomes extremely slow near ts17 between 10 00 and 12 00','Library & Study','Aryabhatt Bhawan II',10,73,57,2,Network
'classroom door and several chairs need repair on floor 3 while the wifi is also unstable','Labs & Research','A2/1',18,45,60,2,Infrastructure
'classroom door and several chairs need repair on floor 3','Academic & Teaching','A2/1',9,44,64,2,Infrastructure
'projector in cr425 switches off after ten minutes near a water cooler','Labs & Research','CL3',13,30,63,1,Infrastructure
'computer fails to boot during practical class in cl15','Labs & Research','CL1',17,51,51,4,Lab_Equipment
'broken writing desk is blocking the aisle in ff6','Labs & Research','CL3',8,31,51,5,Infrastructure
'monitor and keyboard are not detected at workstation in ts17','Labs & Research','CL15',16,45,93,1,Lab_Equipment
'food counter is overcrowded between 14 00 and 16 00 beside the canteen queue','Food','Annapurna / Main Mess',14,95,62,1,Canteen
'network authentication fails for students around cl15','Academic & Teaching','CL15',14,80,80,5,Network
'air conditioner stops cooling after noon on ground floor this happens repeatedly','Labs & Research','CL22',18,79,65,1,Electrical
'internet disconnects repeatedly during the lecture in ff6 near a water cooler','Library & Study','LRC',11,66,37,4,Network
'projector hdmi port is loose in ff6','Academic & Teaching','Aryabhatt Bhawan II',13,74,23,2,Infrastructure
'waiting time at cafeteria / canteen is more than twenty minutes','Food','Cafeteria / Canteen',14,96,60,3,Canteen
'classroom door and several chairs need repair on ground floor','Labs & Research','A2/2',16,51,54,2,Infrastructure
'billing queue reaches the stairwell near cafeteria / canteen please fix urgently','Food','Cafeteria / Canteen',14,86,63,2,Canteen
'water point near water cooler is not operational','Hostels','Water cooler',16,53,49,2,Lab_Equipment
'water is leaking into the corridor on floor 1','General & Utilities','Girls Hostel',12,15,58,4,Water
'food counter is overcrowded between 13 00 and 15 00','Food','Cafeteria / Canteen',13,100,54,2,Canteen
'canteen queue is very long at 13 00 with one counter open this happens repeatedly','Food','Cafeteria / Canteen',13,71,88,1,Canteen
'projector in cl15 switches off after ten minutes','Labs & Research','CL3',12,58,43,4,Infrastructure
'canteen queue is very long at 13 00 with one counter open','Food','Annapurna / Main Mess',13,89,43,3,Canteen
'spill outside cl3 creates a safety hazard','Hostels','Washrooms',16,63,54,1,Infrastructure
'internet disconnects repeatedly during the lecture in cs1','Library & Study','CL15',10,57,87,2,Cleanliness
'wifi becomes extremely slow near cr425 between 14 00 and 16 00','Library & Study','CL15',14,96,32,4,Network
'broken writing desk is blocking the aisle in cl15','Labs & Research','Aryabhatt Bhawan II',11,55,41,1,Infrastructure
'internet disconnects repeatedly during the lecture in cl3 beside the canteen queue','Library & Study','CL15',12,80,70,5,Network
'computer fails to boot during practical class in cl15','Labs & Research','CL15',16,60,38,1,Lab_Equipment
'internet disconnects repeatedly during the lecture in ff6','Library & Study','CL15',10,69,75,1,Network
'wifi becomes extremely slow near cl3 between 10 00 and 12 00','Labs & Research','Aryabhatt Bhawan II',10,100,31,2,Network
'computer fails to boot during practical class in ff6','Labs & Research','CL15',13,78,59,2,Lab_Equipment
'broken writing desk is blocking the aisle in ff6 and the room is overcrowded','Labs & Research','A2/2',17,31,58,2,Infrastructure
'lights flicker repeatedly inside cr425','Hostels','A2/1',17,58,63,3,Electrical
'laboratory equipment reports a calibration error in cl22 after a power interruption','Labs & Research','ECE Labs',11,79,50,2,Lab_Equipment
'student common area is overcrowded after 13 00','Administration','Auditorium',13,80,50,3,Other
'waiting time at cafeteria / canteen is more than twenty minutes students cannot continue class','Food','Cafeteria / Canteen',13,66,20,4,Canteen
'power socket near the desk is unsafe in cs1','Academic & Teaching','A2/1',8,90,70,1,Electrical
'food counter is overcrowded between 13 00 and 15 00','Food','Cafeteria / Canteen',13,45,44,2,Canteen
'wifi becomes extremely slow near cs1 between 10 00 and 12 00 after a power interruption','Library & Study','CL3',10,76,57,3,Network
'network authentication fails for students around lrc while the wifi is also unstable','Academic & Teaching','LRC',9,71,71,5,Network
'floor near aryabhatt bhawan iii is dirty and slippery','General & Utilities','Aryabhatt Bhawan III',15,63,63,3,Cleanliness
'network authentication fails for students around cl15','Academic & Teaching','CL15',9,94,54,4,Network
'two ceiling fans are not working in cl3','Academic & Teaching','H5 Boys Hostel',17,61,64,4,Electrical
'floor near washrooms is dirty and slippery','Academic & Teaching','Washrooms',18,37,63,3,Cleanliness
'waiting time at cafeteria / canteen is more than twenty minutes','Food','Cafeteria / Canteen',13,66,58,2,Cleanliness
'air conditioner stops cooling after noon on floor 1 students cannot continue class beside the canteen queue','Labs & Research','CL22',17,52,93,3,Electrical
'laboratory equipment reports a calibration error in cl15','Labs & Research','CL15',8,27,41,5,Lab_Equipment
'two ceiling fans are not working in ff6','Hostels','H5 Boys Hostel',14,55,63,1,Electrical
'garbage is overflowing in the corridor on floor 3','General & Utilities','Aryabhatt Bhawan III',12,36,68,3,Cleanliness
'very weak wifi signal on ground floor of aryabhatt bhawan ii','Labs & Research','Aryabhatt Bhawan II',10,76,35,4,Network
'water point near girls hostel is not operational','Sports & Recreation','Girls Hostel',15,62,71,2,Water
'power socket near the desk is unsafe in cr425 after a power interruption','Hostels','A2/1',11,31,50,4,Electrical
'classroom door and several chairs need repair on floor 3','Labs & Research','A2/1',16,48,77,3,Infrastructure
'water is leaking into the corridor on floor 1','General & Utilities','Water cooler',17,14,26,3,Water
'three lab systems freeze during compilation in ff6 beside the canteen queue','Labs & Research','CL3',16,45,56,2,Lab_Equipment
'network authentication fails for students around cl15','Academic & Teaching','CL15',11,94,52,1,Network
'billing queue reaches the stairwell near cafeteria / canteen','Food','Cafeteria / Canteen',12,77,50,1,Canteen
'network authentication fails for students around cl15','Library & Study','CL15',10,98,32,3,Network
'network authentication fails for students around lrc while the wifi is also unstable','Labs & Research','LRC',10,98,26,2,Network
'wifi becomes extremely slow near cr425 between 10 00 and 12 00 please fix urgently','Library & Study','CL15',10,87,45,2,Network
'network authentication fails for students around aryabhatt bhawan ii','Academic & Teaching','Aryabhatt Bhawan II',12,94,63,3,Network
'food counter is overcrowded between 12 00 and 14 00','Food','Annapurna / Main Mess',12,77,51,2,Canteen
'floor near h4 boys hostel is dirty and slippery','Hostels','H4 Boys Hostel',11,63,32,4,Cleanliness
'computer fails to boot during practical class in ff6 near a water cooler','Labs & Research','CL22',15,77,47,2,Lab_Equipment
'garbage is overflowing in the corridor on ground floor','General & Utilities','H4 Boys Hostel',8,45,38,3,Cleanliness
'network authentication fails for students around cl3','Academic & Teaching','CL3',10,100,49,3,Network
'three lab systems freeze during compilation in cl3','Labs & Research','ECE Labs',8,39,50,2,Lab_Equipment
'internet disconnects repeatedly during the lecture in ff6','Labs & Research','CL3',12,45,46,2,Network
'waiting time at cafeteria / canteen is more than twenty minutes','Food','Cafeteria / Canteen',13,85,53,3,Canteen
'signage is missing for ff6 on ground floor while the wifi is also unstable','Sports & Recreation','Auditorium',18,46,47,5,Other
'internet disconnects repeatedly during the lecture in cr425 while the wifi is also unstable','Academic & Teaching','LRC',12,70,29,2,Network
'two ceiling fans are not working in cr425','Labs & Research','CL22',12,66,56,1,Electrical
'washroom near ts17 has not been cleaned today please fix urgently','Hostels','Aryabhatt Bhawan III',12,88,49,2,Cleanliness
'very weak wifi signal on ground floor of cl15 students cannot continue class while the wifi is also unstable','Library & Study','CL15',14,62,38,3,Network
'projector hdmi port is loose in cs1','Academic & Teaching','Aryabhatt Bhawan II',11,49,53,2,Infrastructure
'two ceiling fans are not working in ts17','Labs & Research','A2/1',8,50,41,1,Electrical
'very weak wifi signal on floor 4 of lrc','Academic & Teaching','LRC',10,73,65,5,Network
'lights flicker repeatedly inside ff6 while the wifi is also unstable','Hostels','A2/1',12,34,56,2,Electrical
'very weak wifi signal on floor 3 of aryabhatt bhawan ii','Library & Study','Aryabhatt Bhawan II',10,67,43,2,Network
'computer fails to boot during practical class in cl3','Labs & Research','CL15',13,50,67,2,Lab_Equipment
'network authentication fails for students around aryabhatt bhawan ii this happens repeatedly','Academic & Teaching','Aryabhatt Bhawan II',10,91,39,4,Network
'food counter is overcrowded between 12 00 and 14 00','Food','Cafeteria / Canteen',12,100,71,2,Lab_Equipment
'washroom near cr425 has not been cleaned today','General & Utilities','Aryabhatt Bhawan III',8,51,69,3,Cleanliness
'unclassified campus issue reported around auditorium','General & Utilities','Auditorium',13,71,84,3,Other
'power socket near the desk is unsafe in ff6','Labs & Research','A2/1',10,61,63,4,Electrical
'projector hdmi port is loose in cs1','Labs & Research','Aryabhatt Bhawan II',16,34,77,1,Infrastructure
'broken writing desk is blocking the aisle in cl15','Academic & Teaching','A2/1',12,38,32,2,Infrastructure
'water point near swimming pool is not operational','Hostels','Swimming Pool',10,30,47,5,Water
'classroom door and several chairs need repair on floor 3','Labs & Research','A2/1',8,54,58,2,Infrastructure
'water is leaking into the corridor on floor 2','General & Utilities','Girls Hostel',16,85,62,3,Water
'waiting time at cafeteria / canteen is more than twenty minutes students cannot continue class and the room is overcrowded','Food','Cafeteria / Canteen',13,97,59,1,Water
'low water pressure reported around water cooler','General & Utilities','Water cooler',14,54,51,1,Water
'low water pressure reported around girls hostel','Sports & Recreation','Girls Hostel',18,53,67,3,Water
'two ceiling fans are not working in cl3 and the room is overcrowded','Hostels','CL22',16,27,71,1,Electrical
'lights flicker repeatedly inside cr425','Hostels','A2/1',13,36,66,3,Electrical
'three lab systems freeze during compilation in cr425','Labs & Research','ECE Labs',13,68,42,3,Lab_Equipment
'lights flicker repeatedly inside ff6','Hostels','H5 Boys Hostel',8,57,56,3,Electrical
'very weak wifi signal on floor 1 of cl15','Academic & Teaching','CL15',9,77,61,5,Network
'washroom near cl15 has not been cleaned today','General & Utilities','H4 Boys Hostel',17,69,54,2,Cleanliness
'food counter is overcrowded between 12 00 and 14 00 while the wifi is also unstable','Food','Cafeteria / Canteen',12,63,63,2,Canteen
'projector in ts17 switches off after ten minutes','Labs & Research','A2/2',13,70,25,3,Infrastructure
'low water pressure reported around girls hostel and the room is overcrowded','Hostels','Girls Hostel',18,75,68,4,Water
'projector in ff6 switches off after ten minutes','Academic & Teaching','CL3',15,54,59,2,Infrastructure
'two ceiling fans are not working in ts17 students cannot continue class and the room is overcrowded','Labs & Research','A2/1',13,24,87,3,Electrical
'canteen queue is very long at 13 00 with one counter open while the wifi is also unstable','Food','Annapurna / Main Mess',13,80,64,1,Canteen
'network authentication fails for students around cl15 while the wifi is also unstable','Labs & Research','CL15',10,100,54,2,Network
'power socket near the desk is unsafe in cr425 students cannot continue class','Hostels','CL22',9,64,57,2,Electrical
'broken writing desk is blocking the aisle in cs1 near a water cooler','Academic & Teaching','Aryabhatt Bhawan II',11,49,43,3,Infrastructure
'classroom door and several chairs need repair on floor 3','Labs & Research','A2/2',11,100,74,3,Infrastructure
'billing queue reaches the stairwell near annapurna / main mess','Food','Annapurna / Main Mess',13,44,63,4,Canteen
'internet disconnects repeatedly during the lecture in cl15','Library & Study','CL3',9,44,44,3,Network
'air conditioner stops cooling after noon on floor 2 near a water cooler','Academic & Teaching','A2/1',13,33,48,2,Electrical
'classroom door and several chairs need repair on floor 3','Labs & Research','CL3',14,65,41,3,Infrastructure
'internet disconnects repeatedly during the lecture in cs1','Labs & Research','LRC',11,100,73,3,Network
'very weak wifi signal on floor 3 of cl3 while the wifi is also unstable','Library & Study','CL3',12,43,28,3,Network
'classroom door and several chairs need repair on floor 4','Labs & Research','A2/1',15,70,38,3,Infrastructure
'signage is missing for ts17 on floor 4 please fix urgently near a water cooler','General & Utilities','Parking',10,36,24,3,Other
'projector in cs1 switches off after ten minutes','Labs & Research','A2/2',8,57,28,4,Infrastructure
'spill outside ts17 creates a safety hazard','Academic & Teaching','H4 Boys Hostel',16,45,44,4,Cleanliness
'projector hdmi port is loose in cl15 and the room is overcrowded','Academic & Teaching','A2/2',10,58,55,1,Infrastructure
'food counter is overcrowded between 14 00 and 16 00','Food','Cafeteria / Canteen',14,44,74,1,Canteen
'floor near h4 boys hostel is dirty and slippery','General & Utilities','H4 Boys Hostel',10,46,63,4,Cleanliness
'lights flicker repeatedly inside cl3 while the wifi is also unstable','Academic & Teaching','A2/1',8,35,87,4,Electrical
'food counter is overcrowded between 12 00 and 14 00','Food','Annapurna / Main Mess',12,91,47,3,Water
'internet disconnects repeatedly during the lecture in cl15','Labs & Research','LRC',9,73,35,5,Network
'very weak wifi signal on ground floor of cl3 please fix urgently beside the canteen queue','Labs & Research','CL3',11,78,20,3,Network
'drinking water cooler near ff6 is empty','General & Utilities','Girls Hostel',15,48,62,4,Water
'classroom door and several chairs need repair on floor 1','Academic & Teaching','A2/2',17,58,48,3,Infrastructure
'projector in cr425 switches off after ten minutes after a power interruption','Labs & Research','Aryabhatt Bhawan II',16,56,51,1,Infrastructure
'broken writing desk is blocking the aisle in ts17','Labs & Research','CL3',13,51,54,1,Infrastructure
'very weak wifi signal on ground floor of lrc please fix urgently','Library & Study','LRC',11,58,74,2,Network
'waiting time at cafeteria / canteen is more than twenty minutes','Food','Cafeteria / Canteen',13,97,65,2,Canteen
'signage is missing for ff6 on floor 4','General & Utilities','Administration Block',9,100,46,1,Other
'classroom door and several chairs need repair on floor 1','Academic & Teaching','CL3',16,47,63,4,Infrastructure
'very weak wifi signal on floor 4 of aryabhatt bhawan ii','Library & Study','Aryabhatt Bhawan II',12,81,35,3,Network
'laboratory equipment reports a calibration error in cl3 students cannot continue class','Labs & Research','CL3',14,36,49,1,Lab_Equipment
'food counter is overcrowded between 13 00 and 15 00','Food','Annapurna / Main Mess',13,77,36,1,Canteen
'very weak wifi signal on ground floor of cl15','Labs & Research','CL15',10,100,45,3,Network
'garbage is overflowing in the corridor on floor 4','General & Utilities','Washrooms',18,76,54,2,Canteen
'internet disconnects repeatedly during the lecture in ff6 after a power interruption','Academic & Teaching','CL15',11,50,88,1,Network
'network authentication fails for students around aryabhatt bhawan ii','Labs & Research','Aryabhatt Bhawan II',14,90,32,1,Network
'projector hdmi port is loose in ts17','Academic & Teaching','A2/2',17,55,44,2,Infrastructure
'water is leaking into the corridor on floor 4','Hostels','Girls Hostel',17,34,68,1,Water
'broken writing desk is blocking the aisle in cs1 please fix urgently','Academic & Teaching','A2/2',8,84,38,1,Infrastructure
'waiting time at annapurna / main mess is more than twenty minutes while the wifi is also unstable','Food','Annapurna / Main Mess',14,75,55,2,Canteen
'internet disconnects repeatedly during the lecture in g2 beside the canteen queue','Library & Study','LRC',9,63,54,3,Network
'broken writing desk is blocking the aisle in ff6','Academic & Teaching','A2/1',18,48,38,4,Infrastructure
'two ceiling fans are not working in cl3','Academic & Teaching','CL22',16,44,51,1,Electrical
'three lab systems freeze during compilation in cl3 near a water cooler','Labs & Research','CL15',16,55,83,3,Lab_Equipment
'wifi becomes extremely slow near cs1 between 10 00 and 12 00','Labs & Research','CL15',10,67,61,3,Network
'unclassified campus issue reported around parking after a power interruption','Administration','Parking',10,38,52,2,Other
'spill outside ts17 creates a safety hazard','Hostels','H4 Boys Hostel',13,40,54,3,Cleanliness
'wifi becomes extremely slow near cr425 between 14 00 and 16 00 near a water cooler','Labs & Research','CL15',14,81,46,5,Network
'projector in cs1 switches off after ten minutes','Academic & Teaching','Aryabhatt Bhawan II',9,52,65,1,Infrastructure
'water is leaking into the corridor on floor 2 beside the canteen queue','Sports & Recreation','Girls Hostel',10,60,75,3,Water
'air conditioner stops cooling after noon on ground floor','Hostels','CL22',9,54,53,3,Electrical
'garbage is overflowing in the corridor on floor 2','General & Utilities','Washrooms',8,35,37,3,Cleanliness
'spill outside ff6 creates a safety hazard','Academic & Teaching','Aryabhatt Bhawan III',10,65,90,1,Cleanliness
'broken writing desk is blocking the aisle in g2','Labs & Research','A2/2',10,61,48,3,Infrastructure
'projector in ff6 switches off after ten minutes','Labs & Research','CL3',16,49,50,2,Infrastructure
'wifi becomes extremely slow near ts17 between 11 00 and 13 00','Academic & Teaching','CL1',11,81,45,1,Lab_Equipment
'parking congestion blocks the entrance near administration block','General & Utilities','Administration Block',8,63,50,4,Other
'internet disconnects repeatedly during the lecture in cs1','Library & Study','CL15',12,71,48,4,Network
'parking congestion blocks the entrance near administration block','General & Utilities','Administration Block',18,65,30,2,Other
'billing queue reaches the stairwell near cafeteria / canteen','Food','Cafeteria / Canteen',13,65,55,2,Canteen
'projector in cl22 switches off after ten minutes near a water cooler','Labs & Research','CL3',9,64,46,4,Infrastructure
'power socket near the desk is unsafe in cl22','Hostels','CL22',9,61,59,2,Electrical
'network authentication fails for students around cl3 near a water cooler','Academic & Teaching','CL3',11,57,66,4,Network
'billing queue reaches the stairwell near cafeteria / canteen this happens repeatedly','Food','Cafeteria / Canteen',13,68,50,4,Canteen
'billing queue reaches the stairwell near cafeteria / canteen','Food','Cafeteria / Canteen',12,83,57,2,Canteen
'floor near h4 boys hostel is dirty and slippery','General & Utilities','H4 Boys Hostel',11,76,78,2,Cleanliness
'projector hdmi port is loose in cr425 after a power interruption','Labs & Research','A2/1',18,63,45,5,Infrastructure
'projector hdmi port is loose in ff6','Academic & Teaching','CL3',12,47,73,3,Infrastructure
'wifi becomes extremely slow near cl22 between 10 00 and 12 00','Academic & Teaching','CL15',10,100,32,4,Network
'power socket near the desk is unsafe in ff6 after a power interruption','Academic & Teaching','CL22',8,76,43,1,Electrical
'internet disconnects repeatedly during the lecture in g2','Academic & Teaching','CL3',12,80,46,2,Network
'network authentication fails for students around lrc','Labs & Research','LRC',12,59,40,1,Network
'monitor and keyboard are not detected at workstation in ts17','Labs & Research','CL3',11,71,44,3,Lab_Equipment
'wifi becomes extremely slow near cl15 between 9 00 and 11 00','Academic & Teaching','CL3',9,75,63,1,Network
'internet disconnects repeatedly during the lecture in cl15','Academic & Teaching','Aryabhatt Bhawan II',14,100,36,3,Network
'projector hdmi port is loose in g2 please fix urgently','Labs & Research','CL3',12,63,30,2,Infrastructure
'very weak wifi signal on floor 3 of lrc please fix urgently after a power interruption','Library & Study','LRC',12,35,36,2,Network
'billing queue reaches the stairwell near cafeteria / canteen','Food','Cafeteria / Canteen',12,84,41,5,Canteen
'air conditioner stops cooling after noon on floor 2','Academic & Teaching','A2/1',18,69,85,2,Electrical
'air conditioner stops cooling after noon on ground floor','Labs & Research','H5 Boys Hostel',18,15,80,2,Electrical
'billing queue reaches the stairwell near cafeteria / canteen','Food','Cafeteria / Canteen',12,94,58,2,Canteen
'projector in cl22 switches off after ten minutes this happens repeatedly','Labs & Research','A2/2',15,19,48,1,Canteen
'billing queue reaches the stairwell near cafeteria / canteen','Food','Cafeteria / Canteen',12,88,50,4,Canteen
'projector in ff6 switches off after ten minutes','Academic & Teaching','CL3',17,70,34,2,Infrastructure
'water is leaking into the corridor on floor 2','Sports & Recreation','Girls Hostel',11,31,78,5,Water
'signage is missing for cr425 on floor 2','Administration','Main Gate',16,32,33,4,Other
'broken writing desk is blocking the aisle in ts17 students cannot continue class beside the canteen queue','Academic & Teaching','A2/1',17,45,47,2,Infrastructure
'monitor and keyboard are not detected at workstation in cl22','Labs & Research','CL1',13,80,55,2,Lab_Equipment
'lights flicker repeatedly inside cl15','Labs & Research','H5 Boys Hostel',8,66,85,1,Canteen
'food counter is overcrowded between 14 00 and 16 00 while the wifi is also unstable','Food','Annapurna / Main Mess',14,39,49,1,Canteen
'internet disconnects repeatedly during the lecture in ff6','Library & Study','CL3',9,100,42,2,Network
'air conditioner stops cooling after noon on floor 2 students cannot continue class','Labs & Research','H5 Boys Hostel',10,40,66,1,Electrical
'lights flicker repeatedly inside cr425 and the room is overcrowded','Hostels','CL22',18,55,73,2,Electrical
'canteen queue is very long at 12 00 with one counter open please fix urgently','Food','Cafeteria / Canteen',12,67,78,2,Canteen
'monitor and keyboard are not detected at workstation in cr425 please fix urgently','Labs & Research','CL22',12,67,67,1,Water
'monitor and keyboard are not detected at workstation in ts17 and the room is overcrowded','Labs & Research','ECE Labs',10,44,41,2,Lab_Equipment
'broken writing desk is blocking the aisle in ff6','Academic & Teaching','Aryabhatt Bhawan II',17,67,57,2,Infrastructure
'waiting time at annapurna / main mess is more than twenty minutes while the wifi is also unstable','Food','Annapurna / Main Mess',14,77,96,1,Canteen
'waiting time at cafeteria / canteen is more than twenty minutes','Food','Cafeteria / Canteen',13,50,54,5,Canteen
'spill outside g2 creates a safety hazard near a water cooler','Academic & Teaching','Washrooms',10,78,60,1,Cleanliness
'low water pressure reported around water cooler','Sports & Recreation','Water cooler',12,54,86,1,Water
'projector hdmi port is loose in g2 near a water cooler','Academic & Teaching','A2/2',10,45,51,3,Infrastructure
'canteen queue is very long at 13 00 with one counter open','Food','Cafeteria / Canteen',13,53,55,4,Canteen
'garbage is overflowing in the corridor on floor 3','General & Utilities','H4 Boys Hostel',10,50,32,2,Cleanliness
'floor near washrooms is dirty and slippery','Academic & Teaching','Washrooms',12,34,73,1,Cleanliness
'garbage is overflowing in the corridor on ground floor this happens repeatedly','Hostels','H4 Boys Hostel',12,36,58,1,Cleanliness
'washroom near cl22 has not been cleaned today this happens repeatedly after a power interruption','General & Utilities','Aryabhatt Bhawan III',14,39,59,2,Cleanliness
'lights flicker repeatedly inside cl22','Hostels','H5 Boys Hostel',9,60,46,1,Electrical
'network authentication fails for students around cl15 while the wifi is also unstable','Library & Study','CL15',14,61,66,2,Network
'three lab systems freeze during compilation in cl3','Labs & Research','CL1',9,57,47,2,Lab_Equipment
'very weak wifi signal on floor 4 of lrc','Academic & Teaching','LRC',11,69,58,2,Network
'waiting time at cafeteria / canteen is more than twenty minutes','Food','Cafeteria / Canteen',14,63,21,3,Canteen
'washroom near cr425 has not been cleaned today','General & Utilities','H4 Boys Hostel',12,52,76,4,Cleanliness
'internet disconnects repeatedly during the lecture in cl3','Labs & Research','Aryabhatt Bhawan II',12,71,70,2,Network
'canteen queue is very long at 13 00 with one counter open and the room is overcrowded','Food','Cafeteria / Canteen',13,72,61,4,Canteen
'spill outside ff6 creates a safety hazard','Hostels','Aryabhatt Bhawan III',8,38,45,2,Cleanliness
'classroom door and several chairs need repair on floor 1 beside the canteen queue','Labs & Research','A2/2',18,57,81,1,Infrastructure
'air conditioner stops cooling after noon on floor 2','Hostels','CL22',10,15,54,4,Electrical
'very weak wifi signal on ground floor of cl15','Labs & Research','CL15',11,89,52,3,Network
'low water pressure reported around girls hostel after a power interruption','Hostels','Girls Hostel',18,60,82,1,Water
'classroom door and several chairs need repair on floor 3','Academic & Teaching','A2/2',12,51,56,2,Infrastructure
'internet disconnects repeatedly during the lecture in ff6','Labs & Research','CL3',12,72,36,3,Electrical
'laboratory equipment reports a calibration error in cl22','Labs & Research','CL22',8,58,62,4,Lab_Equipment
'classroom door and several chairs need repair on floor 4 while the wifi is also unstable','Academic & Teaching','A2/1',11,31,74,3,Infrastructure
'power socket near the desk is unsafe in cs1 while the wifi is also unstable','Labs & Research','CL22',17,50,81,2,Electrical
'very weak wifi signal on floor 4 of cl15','Labs & Research','CL15',10,91,37,1,Network
'low water pressure reported around swimming pool','General & Utilities','Swimming Pool',14,45,69,1,Water
'wifi becomes extremely slow near ff6 between 11 00 and 13 00','Library & Study','LRC',11,30,53,2,Network
'projector in cl22 switches off after ten minutes','Academic & Teaching','Aryabhatt Bhawan II',16,34,78,3,Infrastructure
'two ceiling fans are not working in cr425 and the room is overcrowded','Academic & Teaching','A2/1',16,41,77,5,Electrical
'network authentication fails for students around lrc after a power interruption','Library & Study','LRC',10,48,47,1,Network
'spill outside cl22 creates a safety hazard','General & Utilities','H4 Boys Hostel',10,32,60,2,Cleanliness
'projector hdmi port is loose in ts17','Labs & Research','CL3',17,83,59,1,Lab_Equipment
'parking congestion blocks the entrance near parking','Administration','Parking',11,57,43,4,Other
'three lab systems freeze during compilation in g2','Labs & Research','CL22',10,28,42,2,Lab_Equipment
'projector in g2 switches off after ten minutes after a power interruption','Labs & Research','Aryabhatt Bhawan II',11,77,43,2,Infrastructure
'floor near h4 boys hostel is dirty and slippery students cannot continue class beside the canteen queue','General & Utilities','H4 Boys Hostel',11,70,36,1,Cleanliness
'network authentication fails for students around cl3 while the wifi is also unstable','Library & Study','CL3',9,96,54,1,Network
'lights flicker repeatedly inside cs1','Hostels','H5 Boys Hostel',14,66,69,3,Electrical
'classroom door and several chairs need repair on floor 4','Labs & Research','A2/1',14,41,44,3,Infrastructure
'two ceiling fans are not working in cl22 beside the canteen queue','Academic & Teaching','H5 Boys Hostel',8,25,41,2,Electrical
'wifi becomes extremely slow near cl22 between 12 00 and 14 00 after a power interruption','Library & Study','CL15',12,100,47,2,Network
'monitor and keyboard are not detected at workstation in g2','Labs & Research','CL15',17,37,70,2,Lab_Equipment
'wifi becomes extremely slow near cl3 between 12 00 and 14 00','Library & Study','LRC',12,100,94,1,Network
'waiting time at annapurna / main mess is more than twenty minutes','Food','Annapurna / Main Mess',13,84,68,3,Canteen
'projector hdmi port is loose in ff6','Academic & Teaching','CL3',11,59,68,2,Infrastructure
'food counter is overcrowded between 14 00 and 16 00','Food','Cafeteria / Canteen',14,55,46,3,Canteen
'billing queue reaches the stairwell near cafeteria / canteen','Food','Cafeteria / Canteen',13,100,68,2,Canteen
'very weak wifi signal on floor 4 of cl15 after a power interruption','Library & Study','CL15',9,69,63,3,Network
'food counter is overcrowded between 14 00 and 16 00 please fix urgently','Food','Annapurna / Main Mess',14,84,61,3,Canteen
'two ceiling fans are not working in cl22 this happens repeatedly','Labs & Research','H5 Boys Hostel',14,94,73,4,Electrical
'network authentication fails for students around aryabhatt bhawan ii','Library & Study','Aryabhatt Bhawan II',9,100,34,3,Network
'two ceiling fans are not working in cr425','Hostels','A2/1',8,35,96,1,Electrical
'billing queue reaches the stairwell near cafeteria / canteen','Food','Cafeteria / Canteen',13,78,53,2,Canteen
'student common area is overcrowded after 8 00 and the room is overcrowded','Administration','Auditorium',8,29,46,2,Other
'waiting time at annapurna / main mess is more than twenty minutes','Food','Annapurna / Main Mess',13,54,61,3,Canteen
'very weak wifi signal on ground floor of aryabhatt bhawan ii','Labs & Research','Aryabhatt Bhawan II',12,100,49,1,Network
'drinking water cooler near cs1 is empty students cannot continue class','General & Utilities','Water cooler',10,100,20,1,Water
'waiting time at cafeteria / canteen is more than twenty minutes students cannot continue class','Food','Cafeteria / Canteen',13,62,45,1,Canteen
'monitor and keyboard are not detected at workstation in cs1','Labs & Research','CL15',10,38,62,1,Lab_Equipment
'air conditioner stops cooling after noon on floor 2 this happens repeatedly','Hostels','A2/1',8,63,77,1,Electrical
'canteen queue is very long at 12 00 with one counter open after a power interruption','Food','Annapurna / Main Mess',12,86,63,3,Canteen
'student common area is overcrowded after 8 00','General & Utilities','Auditorium',8,61,51,2,Other
'laboratory equipment reports a calibration error in ts17','Labs & Research','CL22',14,36,51,5,Lab_Equipment
'internet disconnects repeatedly during the lecture in cl15','Library & Study','LRC',10,57,37,2,Network
'internet disconnects repeatedly during the lecture in cr425','Academic & Teaching','LRC',9,58,47,1,Network
'projector in cr425 switches off after ten minutes near a water cooler','Academic & Teaching','A2/2',9,55,30,4,Infrastructure
'power socket near the desk is unsafe in cl3','Academic & Teaching','A2/1',14,14,84,3,Electrical
'lights flicker repeatedly inside cl3','Hostels','H5 Boys Hostel',12,57,54,1,Electrical
'low water pressure reported around girls hostel near a water cooler','Sports & Recreation','Girls Hostel',12,58,74,5,Water
'projector hdmi port is loose in cl22 this happens repeatedly beside the canteen queue','Labs & Research','A2/1',8,58,40,2,Infrastructure
'water is leaking into the corridor on ground floor students cannot continue class','General & Utilities','Girls Hostel',13,5,62,1,Water
'broken writing desk is blocking the aisle in ff6','Labs & Research','A2/1',14,62,59,3,Infrastructure
'network authentication fails for students around aryabhatt bhawan ii students cannot continue class after a power interruption','Labs & Research','Aryabhatt Bhawan II',9,83,42,5,Network
'water is leaking into the corridor on floor 4 students cannot continue class near a water cooler','Sports & Recreation','Water cooler',14,37,57,4,Water
'wifi becomes extremely slow near cr425 between 9 00 and 11 00','Labs & Research','CL15',9,49,33,3,Water
'air conditioner stops cooling after noon on floor 4 this happens repeatedly and the room is overcrowded','Academic & Teaching','H5 Boys Hostel',13,37,55,2,Electrical
'internet disconnects repeatedly during the lecture in cl3','Labs & Research','CL3',9,58,37,2,Network
'canteen queue is very long at 13 00 with one counter open students cannot continue class','Food','Annapurna / Main Mess',13,47,33,4,Other
'power socket near the desk is unsafe in cl22','Academic & Teaching','CL22',17,44,80,5,Electrical
'network authentication fails for students around aryabhatt bhawan ii','Academic & Teaching','Aryabhatt Bhawan II',12,57,41,4,Network
'water is leaking into the corridor on floor 1','Sports & Recreation','Girls Hostel',18,11,59,1,Water
'two ceiling fans are not working in cl15','Labs & Research','H5 Boys Hostel',13,70,48,3,Electrical
'floor near h4 boys hostel is dirty and slippery','Hostels','H4 Boys Hostel',14,72,83,3,Cleanliness
'washroom near ff6 has not been cleaned today','General & Utilities','Washrooms',16,68,47,3,Cleanliness
'food counter is overcrowded between 12 00 and 14 00','Food','Cafeteria / Canteen',12,70,36,2,Canteen
'classroom door and several chairs need repair on floor 2 this happens repeatedly','Academic & Teaching','A2/2',8,63,46,2,Infrastructure
'broken writing desk is blocking the aisle in cs1','Labs & Research','A2/1',9,78,70,2,Infrastructure
'network authentication fails for students around aryabhatt bhawan ii','Academic & Teaching','Aryabhatt Bhawan II',14,80,96,3,Network
'network authentication fails for students around cl15 near a water cooler','Academic & Teaching','CL15',10,93,80,2,Network
'food counter is overcrowded between 14 00 and 16 00','Food','Annapurna / Main Mess',14,66,20,2,Canteen
'classroom door and several chairs need repair on ground floor near a water cooler','Labs & Research','CL3',13,48,69,3,Infrastructure
'signage is missing for cl22 on floor 4','General & Utilities','Auditorium',16,73,41,1,Water
'very weak wifi signal on ground floor of aryabhatt bhawan ii','Academic & Teaching','Aryabhatt Bhawan II',10,73,58,4,Network
'garbage is overflowing in the corridor on ground floor','General & Utilities','Aryabhatt Bhawan III',8,75,36,1,Cleanliness
'classroom door and several chairs need repair on floor 1','Academic & Teaching','A2/2',9,58,20,2,Infrastructure
'classroom door and several chairs need repair on floor 3','Labs & Research','Aryabhatt Bhawan II',14,40,40,2,Infrastructure
'two ceiling fans are not working in g2 this happens repeatedly','Hostels','H5 Boys Hostel',17,36,70,1,Electrical
'three lab systems freeze during compilation in cs1','Labs & Research','ECE Labs',13,44,49,3,Lab_Equipment
'projector in cl3 switches off after ten minutes','Academic & Teaching','CL3',15,50,71,1,Infrastructure
'billing queue reaches the stairwell near cafeteria / canteen','Food','Cafeteria / Canteen',13,100,65,3,Canteen
'computer fails to boot during practical class in cs1','Labs & Research','CL3',14,40,64,1,Lab_Equipment
'lights flicker repeatedly inside g2 while the wifi is also unstable','Labs & Research','H5 Boys Hostel',13,58,67,1,Electrical
'waiting time at cafeteria / canteen is more than twenty minutes','Food','Cafeteria / Canteen',13,77,82,1,Canteen
'water is leaking into the corridor on floor 1','Hostels','Water cooler',15,51,90,1,Water
'wifi becomes extremely slow near ts17 between 10 00 and 12 00','Library & Study','LRC',10,71,64,3,Network
'water is leaking into the corridor on floor 4','Sports & Recreation','Girls Hostel',12,62,48,1,Water
'network authentication fails for students around aryabhatt bhawan ii please fix urgently','Labs & Research','Aryabhatt Bhawan II',10,76,48,4,Network
'network authentication fails for students around cl15','Library & Study','CL15',10,44,40,2,Network
'wifi becomes extremely slow near cl15 between 14 00 and 16 00 and the room is overcrowded','Labs & Research','LRC',14,100,59,2,Network
'internet disconnects repeatedly during the lecture in ff6','Academic & Teaching','CL15',11,76,51,3,Network
'power socket near the desk is unsafe in cl3','Hostels','A2/1',13,68,57,4,Electrical
'signage is missing for cs1 on floor 1','Administration','Auditorium',17,40,45,1,Other
'projector in cl15 switches off after ten minutes after a power interruption','Academic & Teaching','CL3',8,44,64,1,Infrastructure
'garbage is overflowing in the corridor on floor 2 please fix urgently','Hostels','H4 Boys Hostel',17,63,56,3,Cleanliness
'very weak wifi signal on floor 3 of lrc','Labs & Research','LRC',10,83,38,3,Network
'broken writing desk is blocking the aisle in g2','Labs & Research','A2/1',16,42,61,2,Infrastructure
'internet disconnects repeatedly during the lecture in g2','Library & Study','LRC',9,81,58,1,Network
'water is leaking into the corridor on floor 4','General & Utilities','Water cooler',14,33,66,2,Water
'very weak wifi signal on floor 4 of cl3 this happens repeatedly','Library & Study','CL3',11,74,57,1,Network
'internet disconnects repeatedly during the lecture in ff6','Academic & Teaching','CL15',9,52,96,1,Network
'wifi becomes extremely slow near cs1 between 9 00 and 11 00','Labs & Research','CL3',9,84,50,1,Network
'monitor and keyboard are not detected at workstation in cr425','Labs & Research','ECE Labs',17,12,36,2,Lab_Equipment
'network authentication fails for students around aryabhatt bhawan ii','Labs & Research','Aryabhatt Bhawan II',9,51,52,3,Network
'two ceiling fans are not working in cl22 after a power interruption','Academic & Teaching','A2/1',8,20,85,2,Electrical
'garbage is overflowing in the corridor on floor 1 near a water cooler','Academic & Teaching','H4 Boys Hostel',9,57,74,5,Cleanliness
'three lab systems freeze during compilation in g2','Labs & Research','CL1',8,76,62,2,Lab_Equipment
'unclassified campus issue reported around administration block','Sports & Recreation','Administration Block',14,34,59,3,Other
'washroom near ts17 has not been cleaned today','General & Utilities','Aryabhatt Bhawan III',13,46,67,1,Cleanliness
'power socket near the desk is unsafe in cl22 after a power interruption','Academic & Teaching','A2/1',18,17,51,1,Electrical
'very weak wifi signal on floor 2 of aryabhatt bhawan ii','Labs & Research','Aryabhatt Bhawan II',9,65,28,5,Network
'wifi becomes extremely slow near cs1 between 10 00 and 12 00','Library & Study','LRC',10,91,31,5,Network
'projector hdmi port is loose in ts17','Academic & Teaching','A2/1',12,36,46,5,Infrastructure
'classroom door and several chairs need repair on floor 2 while the wifi is also unstable','Labs & Research','CL3',16,51,59,3,Water
'billing queue reaches the stairwell near cafeteria / canteen after a power interruption','Food','Cafeteria / Canteen',12,83,51,4,Canteen
'three lab systems freeze during compilation in g2 while the wifi is also unstable','Labs & Research','CL22',13,55,44,2,Lab_Equipment
'washroom near g2 has not been cleaned today','General & Utilities','Washrooms',12,36,20,2,Cleanliness
'laboratory equipment reports a calibration error in cl15 beside the canteen queue','Labs & Research','CL15',10,68,30,3,Lab_Equipment
'classroom door and several chairs need repair on floor 4','Labs & Research','Aryabhatt Bhawan II',14,71,44,1,Infrastructure
'network authentication fails for students around lrc','Library & Study','LRC',9,87,43,4,Network
'broken writing desk is blocking the aisle in cl3 while the wifi is also unstable','Labs & Research','A2/1',8,20,34,2,Infrastructure
'two ceiling fans are not working in ff6','Labs & Research','A2/1',8,48,46,1,Electrical
'broken writing desk is blocking the aisle in ff6','Labs & Research','A2/2',12,32,30,2,Infrastructure
'canteen queue is very long at 13 00 with one counter open','Food','Annapurna / Main Mess',13,95,80,2,Canteen
'two ceiling fans are not working in cr425 beside the canteen queue','Labs & Research','H5 Boys Hostel',14,69,76,3,Electrical
'monitor and keyboard are not detected at workstation in g2','Labs & Research','CL1',14,54,73,1,Lab_Equipment
'classroom door and several chairs need repair on floor 4','Academic & Teaching','Aryabhatt Bhawan II',17,45,44,1,Infrastructure
'very weak wifi signal on floor 1 of cl3 this happens repeatedly','Academic & Teaching','CL3',9,84,36,2,Network
'student common area is overcrowded after 12 00','Administration','Auditorium',12,71,88,1,Network
'internet disconnects repeatedly during the lecture in cr425','Academic & Teaching','CL15',9,80,63,2,Network
'spill outside cs1 creates a safety hazard','General & Utilities','Aryabhatt Bhawan III',10,63,56,2,Cleanliness
'washroom near cl15 has not been cleaned today','Academic & Teaching','H4 Boys Hostel',8,68,21,2,Cleanliness
'projector in cl3 switches off after ten minutes','Academic & Teaching','A2/1',10,52,48,1,Infrastructure
'drinking water cooler near cl15 is empty after a power interruption','Hostels','Girls Hostel',15,100,61,3,Water
'waiting time at cafeteria / canteen is more than twenty minutes please fix urgently','Food','Cafeteria / Canteen',12,66,55,3,Canteen
'very weak wifi signal on floor 3 of lrc while the wifi is also unstable','Library & Study','LRC',12,51,40,5,Network
'internet disconnects repeatedly during the lecture in cs1','Library & Study','LRC',12,88,59,2,Network
'spill outside cl3 creates a safety hazard','General & Utilities','Washrooms',15,44,58,2,Cleanliness
'water is leaking into the corridor on ground floor','Hostels','Girls Hostel',10,57,94,3,Water
'monitor and keyboard are not detected at workstation in cl3','Labs & Research','CL15',14,46,43,3,Lab_Equipment
'garbage is overflowing in the corridor on floor 3','Academic & Teaching','Aryabhatt Bhawan III',9,100,22,2,Cleanliness
'very weak wifi signal on floor 3 of cl3 this happens repeatedly beside the canteen queue','Academic & Teaching','CL3',12,100,74,1,Network
'unclassified campus issue reported around parking beside the canteen queue','Administration','Parking',10,86,72,2,Other
'floor near washrooms is dirty and slippery','General & Utilities','Washrooms',13,77,51,4,Cleanliness
'broken writing desk is blocking the aisle in cl22 beside the canteen queue','Academic & Teaching','Aryabhatt Bhawan II',16,70,58,3,Infrastructure
'projector hdmi port is loose in ts17 after a power interruption','Labs & Research','A2/2',16,39,91,3,Infrastructure
'broken writing desk is blocking the aisle in cs1','Academic & Teaching','A2/2',14,51,43,2,Infrastructure
'garbage is overflowing in the corridor on floor 4','Academic & Teaching','Washrooms',16,80,61,4,Cleanliness
'wifi becomes extremely slow near ff6 between 11 00 and 13 00','Academic & Teaching','Aryabhatt Bhawan II',11,66,73,1,Network
'billing queue reaches the stairwell near annapurna / main mess beside the canteen queue','Food','Annapurna / Main Mess',13,68,47,3,Canteen
'laboratory equipment reports a calibration error in ts17','Labs & Research','ECE Labs',11,38,42,4,Lab_Equipment
'very weak wifi signal on floor 2 of cl15','Labs & Research','CL15',9,91,62,3,Canteen
'network authentication fails for students around cl15 after a power interruption','Academic & Teaching','CL15',10,75,43,3,Network
'waiting time at cafeteria / canteen is more than twenty minutes','Food','Cafeteria / Canteen',14,100,46,3,Canteen
'very weak wifi signal on floor 1 of aryabhatt bhawan ii','Academic & Teaching','Aryabhatt Bhawan II',10,100,38,2,Network
'wifi becomes extremely slow near cs1 between 10 00 and 12 00 students cannot continue class','Labs & Research','LRC',10,63,44,5,Network
'waiting time at cafeteria / canteen is more than twenty minutes','Food','Cafeteria / Canteen',13,100,60,2,Other
'projector in cs1 switches off after ten minutes this happens repeatedly while the wifi is also unstable','Labs & Research','A2/2',12,50,56,4,Infrastructure
'classroom door and several chairs need repair on floor 1 while the wifi is also unstable','Labs & Research','A2/1',14,48,48,3,Infrastructure
'classroom door and several chairs need repair on floor 3','Academic & Teaching','CL3',10,69,59,2,Infrastructure
'three lab systems freeze during compilation in ts17 after a power interruption','Labs & Research','CL22',11,68,61,4,Lab_Equipment
'projector in cl15 switches off after ten minutes','Academic & Teaching','Aryabhatt Bhawan II',9,71,75,4,Infrastructure
'network authentication fails for students around cl3 this happens repeatedly','Labs & Research','CL3',10,95,21,3,Network
'very weak wifi signal on floor 1 of cl3','Labs & Research','CL3',9,55,70,3,Network
'billing queue reaches the stairwell near annapurna / main mess','Food','Annapurna / Main Mess',12,63,84,2,Canteen
'very weak wifi signal on floor 4 of lrc','Library & Study','LRC',12,76,50,1,Network
'canteen queue is very long at 14 00 with one counter open','Food','Annapurna / Main Mess',14,89,73,1,Canteen
'water point near water cooler is not operational','Sports & Recreation','Water cooler',13,45,69,2,Water
'parking congestion blocks the entrance near parking','General & Utilities','Parking',13,50,43,1,Canteen
'wifi becomes extremely slow near cl22 between 11 00 and 13 00 students cannot continue class while the wifi is also unstable','Academic & Teaching','LRC',11,100,40,1,Network
'billing queue reaches the stairwell near annapurna / main mess near a water cooler','Food','Annapurna / Main Mess',12,97,62,3,Canteen
'projector hdmi port is loose in ts17 this happens repeatedly','Labs & Research','CL3',14,47,44,5,Infrastructure
'waiting time at cafeteria / canteen is more than twenty minutes','Food','Cafeteria / Canteen',13,83,72,4,Canteen
'broken writing desk is blocking the aisle in cs1','Labs & Research','A2/1',15,54,29,5,Infrastructure
'network authentication fails for students around aryabhatt bhawan ii please fix urgently','Academic & Teaching','Aryabhatt Bhawan II',12,58,63,3,Network
'internet disconnects repeatedly during the lecture in ff6','Labs & Research','CL3',12,72,32,3,Network
'network authentication fails for students around cl3','Academic & Teaching','CL3',10,84,81,4,Network
'laboratory equipment reports a calibration error in ts17','Labs & Research','CL15',17,61,59,2,Lab_Equipment
'internet disconnects repeatedly during the lecture in cl22 students cannot continue class while the wifi is also unstable','Library & Study','CL15',12,87,52,2,Network
'wifi becomes extremely slow near ts17 between 11 00 and 13 00','Library & Study','CL3',11,51,55,5,Network
'projector in cl15 switches off after ten minutes','Labs & Research','CL3',10,78,65,3,Infrastructure
'projector in cl3 switches off after ten minutes students cannot continue class','Labs & Research','CL3',16,72,62,5,Infrastructure
'billing queue reaches the stairwell near cafeteria / canteen this happens repeatedly','Food','Cafeteria / Canteen',13,76,51,3,Canteen
'water point near water cooler is not operational please fix urgently while the wifi is also unstable','Sports & Recreation','Water cooler',9,63,71,2,Water
'waiting time at annapurna / main mess is more than twenty minutes this happens repeatedly','Food','Annapurna / Main Mess',13,100,85,2,Cleanliness
'classroom door and several chairs need repair on floor 1','Labs & Research','Aryabhatt Bhawan II',11,50,53,2,Infrastructure
'network authentication fails for students around aryabhatt bhawan ii','Labs & Research','Aryabhatt Bhawan II',14,61,63,3,Network
'very weak wifi signal on floor 4 of cl3','Academic & Teaching','CL3',9,97,69,3,Network
'water is leaking into the corridor on floor 1','General & Utilities','Water cooler',12,43,68,2,Water
'internet disconnects repeatedly during the lecture in cl22','Academic & Teaching','CL3',10,83,24,4,Network
'garbage is overflowing in the corridor on floor 2','Academic & Teaching','Washrooms',11,31,64,3,Cleanliness
'network authentication fails for students around lrc please fix urgently','Library & Study','LRC',14,88,60,3,Network
'internet disconnects repeatedly during the lecture in cr425 this happens repeatedly after a power interruption','Library & Study','Aryabhatt Bhawan II',10,57,73,2,Network
'projector in cr425 switches off after ten minutes please fix urgently','Academic & Teaching','CL3',17,65,26,5,Infrastructure
'very weak wifi signal on floor 1 of cl15','Labs & Research','CL15',10,57,75,2,Lab_Equipment
'internet disconnects repeatedly during the lecture in g2','Library & Study','Aryabhatt Bhawan II',14,57,54,3,Network
'projector hdmi port is loose in cs1','Labs & Research','A2/2',16,45,54,3,Infrastructure
'broken writing desk is blocking the aisle in g2 near a water cooler','Academic & Teaching','Aryabhatt Bhawan II',15,65,64,5,Infrastructure
'power socket near the desk is unsafe in cl22','Labs & Research','CL22',15,70,78,1,Electrical
'projector hdmi port is loose in cl22 while the wifi is also unstable','Labs & Research','A2/1',15,42,57,2,Infrastructure
'internet disconnects repeatedly during the lecture in cs1','Labs & Research','Aryabhatt Bhawan II',14,100,58,2,Network
'broken writing desk is blocking the aisle in cs1','Academic & Teaching','CL3',10,51,58,1,Infrastructure
'three lab systems freeze during compilation in cr425','Labs & Research','CL22',12,55,55,2,Lab_Equipment
'power socket near the desk is unsafe in ff6 while the wifi is also unstable','Academic & Teaching','CL22',11,50,86,2,Electrical
'laboratory equipment reports a calibration error in g2 students cannot continue class','Labs & Research','CL22',12,55,29,3,Lab_Equipment
'very weak wifi signal on ground floor of aryabhatt bhawan ii and the room is overcrowded','Library & Study','Aryabhatt Bhawan II',11,77,52,4,Network
'canteen queue is very long at 14 00 with one counter open','Food','Annapurna / Main Mess',14,78,34,3,Canteen
'power socket near the desk is unsafe in ts17','Labs & Research','H5 Boys Hostel',13,66,90,1,Electrical
'projector in ts17 switches off after ten minutes','Labs & Research','A2/2',9,62,72,3,Infrastructure
'wifi becomes extremely slow near cl15 between 10 00 and 12 00','Labs & Research','LRC',10,67,78,2,Network
'low water pressure reported around swimming pool beside the canteen queue','General & Utilities','Swimming Pool',18,89,33,3,Water
'internet disconnects repeatedly during the lecture in cl15','Academic & Teaching','CL15',10,72,64,1,Network
'projector in ts17 switches off after ten minutes please fix urgently','Labs & Research','A2/1',17,100,30,3,Infrastructure
'wifi becomes extremely slow near ff6 between 14 00 and 16 00','Library & Study','CL15',14,63,42,2,Network
'billing queue reaches the stairwell near annapurna / main mess please fix urgently after a power interruption','Food','Annapurna / Main Mess',13,86,58,1,Canteen
'wifi becomes extremely slow near ff6 between 10 00 and 12 00 students cannot continue class','Labs & Research','LRC',10,56,48,3,Network
'washroom near g2 has not been cleaned today','Hostels','Aryabhatt Bhawan III',17,60,39,1,Cleanliness
'garbage is overflowing in the corridor on floor 4','Hostels','Washrooms',9,58,61,1,Cleanliness
'very weak wifi signal on floor 3 of cl3','Labs & Research','CL3',10,100,36,2,Network
'billing queue reaches the stairwell near annapurna / main mess please fix urgently','Food','Annapurna / Main Mess',14,79,60,4,Canteen
'canteen queue is very long at 13 00 with one counter open and the room is overcrowded','Food','Cafeteria / Canteen',13,44,38,3,Canteen
'wifi becomes extremely slow near cs1 between 14 00 and 16 00 near a water cooler','Academic & Teaching','LRC',14,100,82,3,Network
'network authentication fails for students around cl3','Academic & Teaching','CL3',10,70,49,5,Network
'three lab systems freeze during compilation in ff6','Labs & Research','CL1',9,52,63,2,Lab_Equipment
'signage is missing for ts17 on ground floor','General & Utilities','Parking',15,78,26,2,Other
'network authentication fails for students around lrc near a water cooler','Labs & Research','LRC',10,66,34,3,Network
'low water pressure reported around swimming pool','General & Utilities','Swimming Pool',10,85,66,3,Water
'projector in cl3 switches off after ten minutes','Labs & Research','CL3',11,33,72,1,Infrastructure
'broken writing desk is blocking the aisle in cs1 and the room is overcrowded','Academic & Teaching','A2/1',14,42,69,1,Infrastructure
'internet disconnects repeatedly during the lecture in g2 please fix urgently','Labs & Research','CL15',9,100,71,2,Network
'internet disconnects repeatedly during the lecture in ts17 students cannot continue class','Library & Study','LRC',10,66,48,2,Network
'monitor and keyboard are not detected at workstation in cr425','Labs & Research','CL15',11,39,49,4,Lab_Equipment
'wifi becomes extremely slow near ff6 between 9 00 and 11 00','Library & Study','LRC',9,97,46,3,Network
'projector in cs1 switches off after ten minutes','Academic & Teaching','A2/2',12,28,32,3,Infrastructure
'internet disconnects repeatedly during the lecture in cl3','Labs & Research','Aryabhatt Bhawan II',9,72,29,1,Network
'broken writing desk is blocking the aisle in cl3','Academic & Teaching','Aryabhatt Bhawan II',16,41,58,2,Infrastructure
'power socket near the desk is unsafe in g2','Academic & Teaching','H5 Boys Hostel',10,45,61,4,Electrical
'internet disconnects repeatedly during the lecture in cs1 beside the canteen queue','Academic & Teaching','Aryabhatt Bhawan II',14,71,52,3,Network
'laboratory equipment reports a calibration error in cl22','Labs & Research','CL22',8,36,36,2,Lab_Equipment
'computer fails to boot during practical class in cs1','Labs & Research','CL22',8,47,73,3,Lab_Equipment
'spill outside cl3 creates a safety hazard','General & Utilities','Aryabhatt Bhawan III',18,71,51,2,Cleanliness
'food counter is overcrowded between 12 00 and 14 00','Food','Annapurna / Main Mess',12,89,71,2,Canteen
'projector in cl22 switches off after ten minutes','Labs & Research','CL3',14,47,74,3,Infrastructure
'wifi becomes extremely slow near g2 between 12 00 and 14 00 while the wifi is also unstable','Labs & Research','CL15',12,86,70,3,Network
'air conditioner stops cooling after noon on floor 4','Hostels','CL22',13,76,61,3,Electrical
'classroom door and several chairs need repair on floor 2 after a power interruption','Academic & Teaching','CL3',18,51,68,2,Infrastructure
'network authentication fails for students around aryabhatt bhawan ii','Academic & Teaching','Aryabhatt Bhawan II',11,84,79,3,Network
'washroom near cr425 has not been cleaned today','Hostels','Washrooms',11,63,31,1,Cleanliness
'power socket near the desk is unsafe in cr425','Labs & Research','A2/1',14,45,67,3,Electrical
'laboratory equipment reports a calibration error in g2 after a power interruption','Labs & Research','CL3',9,54,91,3,Lab_Equipment
'internet disconnects repeatedly during the lecture in cs1 this happens repeatedly and the room is overcrowded','Library & Study','LRC',10,72,45,1,Network
'very weak wifi signal on floor 1 of aryabhatt bhawan ii near a water cooler','Academic & Teaching','Aryabhatt Bhawan II',12,52,69,3,Network
'wifi becomes extremely slow near g2 between 10 00 and 12 00','Library & Study','CL15',10,79,62,2,Network
'computer fails to boot during practical class in cl15','Labs & Research','CL3',16,71,25,5,Lab_Equipment
'very weak wifi signal on ground floor of lrc','Labs & Research','LRC',10,100,38,4,Network
'billing queue reaches the stairwell near annapurna / main mess','Food','Annapurna / Main Mess',14,85,72,2,Canteen
'monitor and keyboard are not detected at workstation in cr425','Labs & Research','CL1',14,44,20,4,Lab_Equipment
'very weak wifi signal on floor 2 of aryabhatt bhawan ii','Labs & Research','Aryabhatt Bhawan II',14,85,78,2,Network
'waiting time at annapurna / main mess is more than twenty minutes this happens repeatedly while the wifi is also unstable','Food','Annapurna / Main Mess',13,73,62,3,Canteen
'waiting time at annapurna / main mess is more than twenty minutes','Food','Annapurna / Main Mess',14,91,60,5,Canteen
'laboratory equipment reports a calibration error in ts17','Labs & Research','ECE Labs',9,54,48,3,Lab_Equipment
'washroom near cr425 has not been cleaned today','Hostels','H4 Boys Hostel',15,67,25,1,Cleanliness
'monitor and keyboard are not detected at workstation in cr425','Labs & Research','CL1',16,49,63,4,Lab_Equipment
'monitor and keyboard are not detected at workstation in cs1 and the room is overcrowded','Labs & Research','CL22',18,73,57,3,Lab_Equipment
'food counter is overcrowded between 12 00 and 14 00','Food','Cafeteria / Canteen',12,95,33,1,Electrical
'projector in ts17 switches off after ten minutes','Labs & Research','A2/1',8,47,20,3,Infrastructure
'floor near aryabhatt bhawan iii is dirty and slippery','Academic & Teaching','Aryabhatt Bhawan III',14,59,51,2,Cleanliness
'network authentication fails for students around aryabhatt bhawan ii','Academic & Teaching','Aryabhatt Bhawan II',14,71,79,3,Network
'air conditioner stops cooling after noon on floor 4','Labs & Research','A2/1',18,65,84,5,Network
'canteen queue is very long at 13 00 with one counter open','Food','Annapurna / Main Mess',13,100,37,4,Canteen
'projector in cl15 switches off after ten minutes','Academic & Teaching','A2/2',16,38,77,3,Infrastructure
'canteen queue is very long at 13 00 with one counter open','Food','Annapurna / Main Mess',13,65,58,3,Canteen
'network authentication fails for students around aryabhatt bhawan ii students cannot continue class','Academic & Teaching','Aryabhatt Bhawan II',14,59,57,2,Network
'wifi becomes extremely slow near cl15 between 11 00 and 13 00','Library & Study','LRC',11,100,51,2,Network
'air conditioner stops cooling after noon on floor 1 near a water cooler','Labs & Research','H5 Boys Hostel',13,65,72,5,Electrical
'wifi becomes extremely slow near ts17 between 10 00 and 12 00','Labs & Research','CL15',10,55,65,2,Network
'washroom near ff6 has not been cleaned today this happens repeatedly while the wifi is also unstable','General & Utilities','Washrooms',12,31,61,3,Cleanliness
'washroom near cs1 has not been cleaned today','General & Utilities','H4 Boys Hostel',10,65,65,4,Cleanliness
'lights flicker repeatedly inside cl22 near a water cooler','Labs & Research','H5 Boys Hostel',18,77,42,2,Electrical
'water point near water cooler is not operational after a power interruption','Sports & Recreation','Water cooler',15,95,40,2,Water
'very weak wifi signal on floor 2 of aryabhatt bhawan ii while the wifi is also unstable','Labs & Research','Aryabhatt Bhawan II',10,55,75,1,Network
'wifi becomes extremely slow near ff6 between 10 00 and 12 00 near a water cooler','Library & Study','CL3',10,100,47,1,Network
'monitor and keyboard are not detected at workstation in g2','Labs & Research','CL1',13,32,61,3,Lab_Equipment
'billing queue reaches the stairwell near annapurna / main mess','Food','Annapurna / Main Mess',12,63,36,2,Canteen
'wifi becomes extremely slow near g2 between 10 00 and 12 00 near a water cooler','Library & Study','LRC',10,97,50,2,Cleanliness
'water is leaking into the corridor on ground floor students cannot continue class beside the canteen queue','Hostels','Girls Hostel',13,27,67,2,Water
'very weak wifi signal on floor 4 of aryabhatt bhawan ii this happens repeatedly','Labs & Research','Aryabhatt Bhawan II',11,73,41,2,Network
'very weak wifi signal on floor 3 of cl15','Academic & Teaching','CL15',11,87,40,2,Network
'garbage is overflowing in the corridor on floor 4','General & Utilities','H4 Boys Hostel',18,25,52,4,Cleanliness
'spill outside cl15 creates a safety hazard near a water cooler','Hostels','H4 Boys Hostel',17,46,72,1,Cleanliness
'internet disconnects repeatedly during the lecture in cl22 near a water cooler','Library & Study','CL3',10,93,50,1,Network
'classroom door and several chairs need repair on floor 1','Academic & Teaching','Aryabhatt Bhawan II',15,77,60,4,Infrastructure
'low water pressure reported around swimming pool','General & Utilities','Swimming Pool',14,75,53,2,Water
'food counter is overcrowded between 12 00 and 14 00 this happens repeatedly','Food','Annapurna / Main Mess',12,78,64,3,Canteen
'power socket near the desk is unsafe in ts17 and the room is overcrowded','Labs & Research','CL22',17,69,49,4,Electrical
'network authentication fails for students around lrc this happens repeatedly while the wifi is also unstable','Academic & Teaching','LRC',12,67,39,2,Network
'drinking water cooler near ts17 is empty','Hostels','Girls Hostel',14,58,82,3,Water
'classroom door and several chairs need repair on ground floor','Academic & Teaching','Aryabhatt Bhawan II',8,59,45,5,Infrastructure
'air conditioner stops cooling after noon on floor 1','Academic & Teaching','A2/1',15,33,75,4,Electrical
'monitor and keyboard are not detected at workstation in g2','Labs & Research','CL1',12,33,42,2,Lab_Equipment
'projector in ff6 switches off after ten minutes','Academic & Teaching','Aryabhatt Bhawan II',10,66,53,1,Infrastructure
'food counter is overcrowded between 14 00 and 16 00','Food','Cafeteria / Canteen',14,86,70,4,Canteen
'food counter is overcrowded between 14 00 and 16 00 and the room is overcrowded','Food','Annapurna / Main Mess',14,75,61,2,Canteen
'laboratory equipment reports a calibration error in cs1','Labs & Research','ECE Labs',15,26,33,3,Lab_Equipment
'food counter is overcrowded between 12 00 and 14 00','Food','Cafeteria / Canteen',12,95,81,2,Canteen
'computer fails to boot during practical class in cl22','Labs & Research','CL15',10,75,53,3,Lab_Equipment
'classroom door and several chairs need repair on floor 1','Labs & Research','A2/2',8,64,50,2,Infrastructure
'wifi becomes extremely slow near cl22 between 11 00 and 13 00','Academic & Teaching','LRC',11,75,68,5,Network
'floor near washrooms is dirty and slippery','Academic & Teaching','Washrooms',10,62,31,1,Other
'water point near girls hostel is not operational','Sports & Recreation','Girls Hostel',12,59,62,4,Water
'garbage is overflowing in the corridor on floor 3 students cannot continue class','Academic & Teaching','Aryabhatt Bhawan III',10,43,54,2,Cleanliness
'laboratory equipment reports a calibration error in g2','Labs & Research','CL3',18,45,55,1,Lab_Equipment
'billing queue reaches the stairwell near cafeteria / canteen','Food','Cafeteria / Canteen',14,89,54,3,Canteen
'wifi becomes extremely slow near g2 between 10 00 and 12 00','Academic & Teaching','CL3',10,46,69,3,Network
'lights flicker repeatedly inside ts17','Hostels','CL22',15,65,40,1,Electrical
'wifi becomes extremely slow near cl15 between 14 00 and 16 00','Academic & Teaching','LRC',14,68,65,4,Network
'two ceiling fans are not working in cl15 after a power interruption','Hostels','H5 Boys Hostel',13,46,47,3,Electrical
'spill outside cl22 creates a safety hazard','Hostels','H4 Boys Hostel',15,45,51,1,Cleanliness
'projector hdmi port is loose in cr425','Labs & Research','A2/1',18,55,47,2,Infrastructure
'lights flicker repeatedly inside cr425 and the room is overcrowded','Labs & Research','H5 Boys Hostel',11,41,63,2,Electrical
'spill outside ts17 creates a safety hazard','Academic & Teaching','H4 Boys Hostel',8,40,76,5,Cleanliness
'computer fails to boot during practical class in cl3 after a power interruption','Labs & Research','ECE Labs',14,58,40,1,Lab_Equipment
'waiting time at annapurna / main mess is more than twenty minutes','Food','Annapurna / Main Mess',13,76,28,3,Canteen
'wifi becomes extremely slow near ff6 between 12 00 and 14 00','Labs & Research','CL15',12,64,52,1,Network
'three lab systems freeze during compilation in ff6 students cannot continue class','Labs & Research','CL22',8,54,49,3,Lab_Equipment
'wifi becomes extremely slow near cl22 between 10 00 and 12 00','Library & Study','CL3',10,74,62,1,Network
'computer fails to boot during practical class in cl22','Labs & Research','CL3',17,33,48,1,Lab_Equipment
'classroom door and several chairs need repair on ground floor','Labs & Research','CL3',14,45,56,2,Electrical
'classroom door and several chairs need repair on floor 2','Labs & Research','CL3',9,76,25,2,Infrastructure
'broken writing desk is blocking the aisle in ts17 and the room is overcrowded','Labs & Research','Aryabhatt Bhawan II',10,50,62,1,Infrastructure
'monitor and keyboard are not detected at workstation in ff6','Labs & Research','CL3',10,38,41,5,Lab_Equipment
'projector in ts17 switches off after ten minutes beside the canteen queue','Academic & Teaching','Aryabhatt Bhawan II',13,33,58,1,Infrastructure
'drinking water cooler near cl15 is empty','General & Utilities','Swimming Pool',11,49,54,5,Water
'drinking water cooler near g2 is empty','Hostels','Girls Hostel',8,55,75,1,Water
'classroom door and several chairs need repair on floor 2 students cannot continue class','Labs & Research','A2/1',14,26,38,5,Infrastructure
'washroom near cs1 has not been cleaned today please fix urgently','Academic & Teaching','Washrooms',14,70,60,3,Cleanliness
'projector hdmi port is loose in ts17','Academic & Teaching','A2/2',10,83,62,2,Cleanliness
'classroom door and several chairs need repair on floor 2 please fix urgently','Labs & Research','A2/2',17,26,51,2,Infrastructure
'floor near aryabhatt bhawan iii is dirty and slippery near a water cooler','General & Utilities','Aryabhatt Bhawan III',10,69,50,1,Cleanliness
'projector hdmi port is loose in cs1','Labs & Research','Aryabhatt Bhawan II',12,67,51,3,Infrastructure
'very weak wifi signal on floor 1 of aryabhatt bhawan ii','Academic & Teaching','Aryabhatt Bhawan II',14,96,66,2,Network
'spill outside cl22 creates a safety hazard','Hostels','Aryabhatt Bhawan III',8,73,52,2,Cleanliness
'network authentication fails for students around aryabhatt bhawan ii','Library & Study','Aryabhatt Bhawan II',9,73,70,4,Network
'broken writing desk is blocking the aisle in ff6 please fix urgently','Labs & Research','CL3',9,37,49,3,Infrastructure
'very weak wifi signal on floor 1 of lrc','Labs & Research','LRC',12,65,86,4,Network
'broken writing desk is blocking the aisle in cl22','Labs & Research','A2/2',8,21,26,2,Electrical
'network authentication fails for students around lrc near a water cooler','Labs & Research','LRC',12,48,54,1,Network
'classroom door and several chairs need repair on floor 3','Academic & Teaching','Aryabhatt Bhawan II',8,37,74,2,Infrastructure
'floor near aryabhatt bhawan iii is dirty and slippery','Academic & Teaching','H4 Boys Hostel',16,38,54,2,Cleanliness
'classroom door and several chairs need repair on floor 3','Academic & Teaching','Aryabhatt Bhawan II',10,38,80,1,Infrastructure
'projector hdmi port is loose in cr425','Academic & Teaching','A2/2',12,50,96,1,Infrastructure
'network authentication fails for students around aryabhatt bhawan ii','Labs & Research','Aryabhatt Bhawan II',10,36,58,3,Network
'wifi becomes extremely slow near cl22 between 11 00 and 13 00','Academic & Teaching','CL3',11,62,46,4,Network
'floor near h4 boys hostel is dirty and slippery','Hostels','H4 Boys Hostel',16,57,74,1,Cleanliness
'projector in ts17 switches off after ten minutes beside the canteen queue','Labs & Research','A2/2',17,51,52,1,Infrastructure
'signage is missing for cl15 on floor 3 while the wifi is also unstable','Sports & Recreation','Main Gate',15,66,62,4,Other
'network authentication fails for students around lrc','Labs & Research','LRC',10,53,50,4,Network
'internet disconnects repeatedly during the lecture in g2','Academic & Teaching','Aryabhatt Bhawan II',11,66,41,3,Network
'wifi becomes extremely slow near cr425 between 11 00 and 13 00','Academic & Teaching','Aryabhatt Bhawan II',11,55,69,4,Network
'water is leaking into the corridor on floor 4','General & Utilities','Swimming Pool',12,36,82,1,Water
'canteen queue is very long at 13 00 with one counter open','Food','Cafeteria / Canteen',13,80,81,3,Canteen
'air conditioner stops cooling after noon on floor 4','Hostels','CL22',13,69,58,1,Electrical
'water is leaking into the corridor on floor 3 please fix urgently','General & Utilities','Girls Hostel',11,71,79,4,Water
'two ceiling fans are not working in cl15 beside the canteen queue','Hostels','CL22',12,58,75,4,Electrical
'low water pressure reported around swimming pool','Hostels','Swimming Pool',10,21,63,1,Water
'very weak wifi signal on floor 1 of lrc','Labs & Research','LRC',9,74,67,2,Network
'spill outside ff6 creates a safety hazard students cannot continue class','Hostels','H4 Boys Hostel',17,59,36,4,Cleanliness
'wifi becomes extremely slow near ts17 between 11 00 and 13 00','Library & Study','CL3',11,19,83,2,Network
'three lab systems freeze during compilation in cl3 near a water cooler','Labs & Research','CL3',13,75,81,2,Lab_Equipment
'broken writing desk is blocking the aisle in cs1 please fix urgently','Labs & Research','A2/2',8,54,58,5,Infrastructure
'internet disconnects repeatedly during the lecture in cr425','Labs & Research','CL3',14,100,35,2,Network
'low water pressure reported around swimming pool','Sports & Recreation','Swimming Pool',15,64,54,1,Water
'billing queue reaches the stairwell near annapurna / main mess','Food','Annapurna / Main Mess',12,81,50,4,Lab_Equipment
'lights flicker repeatedly inside ff6 this happens repeatedly','Hostels','A2/1',18,79,79,1,Electrical
'projector in ts17 switches off after ten minutes this happens repeatedly','Labs & Research','A2/2',8,37,63,3,Infrastructure
'broken writing desk is blocking the aisle in ts17 while the wifi is also unstable','Academic & Teaching','A2/2',13,71,22,1,Infrastructure
'very weak wifi signal on floor 3 of aryabhatt bhawan ii','Library & Study','Aryabhatt Bhawan II',10,80,72,3,Network
'lights flicker repeatedly inside cl3','Hostels','CL22',16,73,41,1,Electrical
'network authentication fails for students around cl15','Academic & Teaching','CL15',10,82,65,3,Network
'projector in cl15 switches off after ten minutes','Labs & Research','A2/1',15,80,76,1,Infrastructure
'power socket near the desk is unsafe in ts17','Labs & Research','A2/1',16,77,83,3,Electrical
'power socket near the desk is unsafe in g2 near a water cooler','Labs & Research','A2/1',10,42,65,2,Electrical
'air conditioner stops cooling after noon on floor 4','Academic & Teaching','H5 Boys Hostel',8,34,50,1,Electrical
'spill outside cl22 creates a safety hazard','General & Utilities','H4 Boys Hostel',12,89,41,3,Other
'classroom door and several chairs need repair on floor 2 and the room is overcrowded','Academic & Teaching','Aryabhatt Bhawan II',15,71,64,2,Infrastructure
'food counter is overcrowded between 14 00 and 16 00','Food','Annapurna / Main Mess',14,58,25,2,Canteen
'student common area is overcrowded after 9 00','Administration','Auditorium',9,41,51,1,Other
'laboratory equipment reports a calibration error in cl3 after a power interruption','Labs & Research','CL3',16,23,58,2,Lab_Equipment
'very weak wifi signal on floor 3 of cl15 please fix urgently','Academic & Teaching','CL15',10,84,44,2,Network
'washroom near cs1 has not been cleaned today','Academic & Teaching','Aryabhatt Bhawan III',14,64,56,2,Cleanliness
'projector in g2 switches off after ten minutes','Academic & Teaching','A2/1',12,57,47,4,Infrastructure
'low water pressure reported around water cooler','General & Utilities','Water cooler',18,15,80,2,Water
'broken writing desk is blocking the aisle in cl22 after a power interruption','Labs & Research','CL3',8,60,67,4,Infrastructure
'floor near aryabhatt bhawan iii is dirty and slippery and the room is overcrowded','Academic & Teaching','Aryabhatt Bhawan III',12,58,37,1,Cleanliness
'broken writing desk is blocking the aisle in cl3 while the wifi is also unstable','Academic & Teaching','A2/1',14,68,38,4,Infrastructure
'broken writing desk is blocking the aisle in cl3','Labs & Research','Aryabhatt Bhawan II',17,64,59,4,Infrastructure
'food counter is overcrowded between 12 00 and 14 00','Food','Cafeteria / Canteen',12,62,41,3,Canteen
'broken writing desk is blocking the aisle in cl15','Academic & Teaching','Aryabhatt Bhawan II',16,61,53,1,Infrastructure
'garbage is overflowing in the corridor on floor 3 after a power interruption','Academic & Teaching','Aryabhatt Bhawan III',8,65,66,1,Cleanliness
'projector in cl15 switches off after ten minutes','Academic & Teaching','A2/1',14,82,37,1,Infrastructure
'wifi becomes extremely slow near ff6 between 10 00 and 12 00','Library & Study','CL3',10,64,74,2,Other
'drinking water cooler near cs1 is empty','General & Utilities','Girls Hostel',12,29,60,3,Water
'floor near h4 boys hostel is dirty and slippery','Hostels','H4 Boys Hostel',18,31,86,4,Cleanliness
'wifi becomes extremely slow near cs1 between 9 00 and 11 00 beside the canteen queue','Library & Study','CL3',9,97,60,4,Network
'monitor and keyboard are not detected at workstation in cs1','Labs & Research','CL1',14,87,35,2,Lab_Equipment
'projector in cl3 switches off after ten minutes','Labs & Research','CL3',10,47,45,3,Infrastructure
'projector in cl22 switches off after ten minutes','Academic & Teaching','CL3',8,100,21,4,Infrastructure
'spill outside cs1 creates a safety hazard','Academic & Teaching','Washrooms',16,61,47,3,Cleanliness
'very weak wifi signal on ground floor of cl3','Labs & Research','CL3',10,57,59,5,Network
'unclassified campus issue reported around administration block','Administration','Administration Block',14,79,64,1,Other
'garbage is overflowing in the corridor on ground floor','General & Utilities','Washrooms',8,17,36,2,Cleanliness
'food counter is overcrowded between 13 00 and 15 00','Food','Cafeteria / Canteen',13,89,50,2,Canteen
'air conditioner stops cooling after noon on ground floor students cannot continue class','Hostels','H5 Boys Hostel',15,54,69,5,Electrical
'air conditioner stops cooling after noon on floor 2','Labs & Research','H5 Boys Hostel',15,51,37,1,Electrical
'power socket near the desk is unsafe in ff6','Labs & Research','CL22',10,61,65,3,Electrical
'billing queue reaches the stairwell near cafeteria / canteen this happens repeatedly','Food','Cafeteria / Canteen',13,79,44,1,Canteen
