@RELATION campuslens_complaints_v2

@ATTRIBUTE complaint STRING
@ATTRIBUTE facility_type {academic,lab,library,food,hostel,office,common,outdoor,utility,sports}
@ATTRIBUTE hour NUMERIC
@ATTRIBUTE occupancy NUMERIC
@ATTRIBUTE humidity NUMERIC
@ATTRIBUTE impact NUMERIC
@ATTRIBUTE category {Network,Infrastructure,Cleanliness,Canteen,Electrical,Lab_Equipment,Water,Other}

@DATA
'please investigate because the service queue is moving very slowly in h4 corridor 1 the food service operation is affected and the issue lasts more than ten minutes at 14:42 case 0',hostel,14,70,72,2,Canteen
'staff were informed that an electrical panel is making an unusual sound in h5 corridor 2 and it interrupts scheduled teaching and several students are affected at 16:51 case 1',hostel,16,48,73,4,Electrical
'a repeated observation is that the display cable and wall port need repair in g5 and staff assistance has been requested and it interrupts scheduled teaching at 16:56 case 2',academic,16,56,69,2,Infrastructure
'today we noticed that network coverage disappears near the back rows in cr425 the network service is affected near the main entrance to the space at 10:44 case 3',academic,10,53,44,1,Network
'today we noticed that charging points are unavailable in reception and the condition has become more frequent although nearby rooms remain usable at 11:42 case 4',office,11,90,33,3,Electrical
'an urgent maintenance check is needed because signage for the room is missing in ts11 the physical infrastructure needs attention and several students are affected at 8:15 case 5',academic,8,79,52,2,Infrastructure
'staff were informed that an unattended item is obstructing the walkway in cs1 while the area is moderately occupied and several students are affected at 10:42 case 6',academic,10,43,50,1,Other
'a repeated observation is that a power socket is loose and unsafe in cs2 the electrical supply needs inspection and the condition has become more frequent at 15:03 case 7',academic,15,54,68,5,Electrical
'students report that water is leaking into the walking area in cooler b and several students are affected after normal troubleshooting was attempted at 11:59 case 8',utility,11,83,32,3,Water
'an urgent maintenance check is needed because a switchboard becomes warm during operation in h5 common room while another campus service remains normal although nearby rooms remain usable at 8:40 case 9',hostel,8,67,41,3,Electrical
'students report that water is leaking into the walking area in g2 the water service needs attention and the condition has become more frequent at 9:07 case 10',academic,9,52,35,3,Water
'a repeated observation is that the nearest water point is not operational in washroom g the water service needs attention without any warning notice at 11:49 case 11',utility,11,60,82,5,Water
'students report that several desks have loose or damaged fittings in visitor parking although nearby rooms remain usable while another campus service remains normal at 17:17 case 13',outdoor,17,55,63,5,Infrastructure
'staff were informed that a tap continues running after it is closed in washroom g the water service needs attention without any warning notice at 13:35 case 14',utility,13,49,58,2,Water
'a repeated observation is that laboratory equipment reports a calibration error in h4 corridor 1 and staff assistance has been requested and the condition has become more frequent at 18:36 case 15',hostel,18,54,46,1,Lab_Equipment
'for the second time this week the lecture-room screen does not lower correctly in cr202 without any warning notice during a regular teaching period at 9:51 case 17',academic,9,48,59,1,Infrastructure
'a repeated observation is that the wash area needs urgent sanitation in g5 this is a hygiene and cleanliness concern and several students are affected at 10:57 case 18',academic,10,92,49,5,Network
'please investigate because the drinking-water dispenser is empty in h4 corridor 2 and staff assistance has been requested and several students are affected at 10:21 case 19',hostel,10,95,71,3,Cleanliness
'an urgent maintenance check is needed because standing water is creating an unhygienic patch in g6 while the area is moderately occupied near the main entrance to the space at 8:38 case 20',academic,8,81,78,3,Cleanliness
'today we noticed that charging points are unavailable in washroom g the electrical supply needs inspection after normal troubleshooting was attempted at 10:44 case 23',utility,10,44,44,3,Electrical
'for the second time this week order processing has stopped at one counter in visitor parking although nearby rooms remain usable while another campus service remains normal at 16:53 case 25',outdoor,16,69,50,1,Canteen
'during the latest session a spill has made the floor slippery in h4 common room after normal troubleshooting was attempted while the area is moderately occupied at 9:35 case 26',hostel,9,62,59,3,Cleanliness
'an urgent maintenance check is needed because the filtration unit shows a service warning in main hall the water service needs attention after normal troubleshooting was attempted at 16:49 case 27',common,16,46,68,3,Water
'during the latest session the common area is overcrowded in cl1-a near the main entrance to the space and the issue lasts more than ten minutes at 15:12 case 28',lab,15,59,27,2,Other
'staff were informed that the experiment console does not record readings in ts12 and staff assistance has been requested near the main entrance to the space at 8:34 case 29',academic,8,77,63,3,Lab_Equipment
'an urgent maintenance check is needed because pedestrian movement is restricted by stored material in cr101 and the condition has become more frequent during a regular teaching period at 8:20 case 30',academic,8,63,41,2,Other
'an urgent maintenance check is needed because the lab printer is unavailable to student systems in washroom g while another campus service remains normal and the issue lasts more than ten minutes at 11:57 case 32',utility,11,39,42,5,Lab_Equipment
'staff were informed that the writing surface is damaged and difficult to use in cr101 the physical infrastructure needs attention without any warning notice at 17:44 case 33',academic,17,93,45,5,Infrastructure
'during the latest session lights flicker repeatedly during use in ts17 after normal troubleshooting was attempted and it interrupts scheduled teaching at 10:12 case 34',academic,10,45,61,4,Electrical
'today we noticed that charging points are unavailable in h4 corridor 1 and several students are affected while the area is moderately occupied at 8:57 case 35',hostel,8,74,77,2,Electrical
'an urgent maintenance check is needed because standing water is creating an unhygienic patch in academic office this is a hygiene and cleanliness concern while another campus service remains normal at 9:12 case 36',office,9,86,56,1,Cleanliness
'during the latest session students cannot authenticate to the wireless network in g3 the network service is affected while another campus service remains normal at 15:26 case 37',academic,15,66,55,2,Network
'a repeated observation is that a power socket is loose and unsafe in cr201 and staff assistance has been requested and several students are affected at 10:04 case 38',academic,10,69,27,3,Electrical
'a repeated observation is that a campus service is unavailable without an explanation in cr102 campus operations are being disrupted while the area is moderately occupied at 17:31 case 39',academic,17,84,42,5,Other
'for the second time this week the device driver is missing from the workstation in visitor parking although nearby rooms remain usable while the area is moderately occupied at 12:39 case 40',outdoor,12,85,51,1,Lab_Equipment
'please investigate because several systems freeze during compilation in reception laboratory equipment availability is affected during a regular teaching period at 17:30 case 43',office,17,47,51,1,Lab_Equipment
'during the latest session a spill has made the floor slippery in food court this is a hygiene and cleanliness concern near the main entrance to the space at 14:55 case 45',food,14,46,33,2,Cleanliness
'a repeated observation is that the display cable and wall port need repair in cr425 and several students are affected and the issue lasts more than ten minutes at 18:39 case 46',academic,18,83,35,3,Infrastructure
'during the latest session the workstation cannot boot for the practical in cr425 laboratory equipment availability is affected and staff assistance has been requested at 9:53 case 49',academic,9,53,67,2,Lab_Equipment
'a repeated observation is that the display cable and wall port need repair in cl1-a while the area is moderately occupied during a regular teaching period at 15:28 case 50',lab,15,57,43,4,Infrastructure
'staff were informed that the experiment console does not record readings in g5 near the main entrance to the space although nearby rooms remain usable at 18:07 case 53',academic,18,71,53,5,Lab_Equipment
'a repeated observation is that internet speed falls below a usable level in cl15-a near the main entrance to the space and staff assistance has been requested at 18:23 case 54',lab,18,86,83,2,Network
'students report that the air conditioner stops cooling after midday in g6 the electrical supply needs inspection near the main entrance to the space at 10:04 case 56',academic,10,71,56,2,Electrical
'please investigate because the campus network drops repeatedly during class in cl1-b the network service is affected although nearby rooms remain usable at 12:36 case 57',lab,12,67,36,4,Network
'staff were informed that an electrical panel is making an unusual sound in reception the electrical supply needs inspection while another campus service remains normal at 13:35 case 58',office,13,59,87,1,Electrical
'staff were informed that a tap continues running after it is closed in ts18 the water service needs attention while another campus service remains normal at 9:47 case 59',academic,9,69,65,1,Water
'staff were informed that an electrical panel is making an unusual sound in academic office the electrical supply needs inspection near the main entrance to the space at 16:20 case 61',office,16,66,66,3,Electrical
'a repeated observation is that the wash area needs urgent sanitation in cs1 while the area is moderately occupied and the issue lasts more than ten minutes at 18:44 case 62',academic,18,66,73,1,Cleanliness
'staff were informed that a tap continues running after it is closed in backstage the water service needs attention and the issue lasts more than ten minutes at 18:58 case 63',common,18,53,65,4,Water
'students report that water is leaking into the walking area in cr102 and it interrupts scheduled teaching and the issue lasts more than ten minutes at 8:38 case 64',academic,8,71,68,2,Water
'please investigate because the drinking-water dispenser is empty in counter a the water service needs attention after normal troubleshooting was attempted at 18:23 case 65',food,18,65,64,4,Water
'an urgent maintenance check is needed because a switchboard becomes warm during operation in cl22-a and the condition has become more frequent while the area is moderately occupied at 17:32 case 66',lab,17,40,39,3,Lab_Equipment
'during the latest session students cannot authenticate to the wireless network in cr201 and the condition has become more frequent near the main entrance to the space at 16:14 case 67',academic,16,36,62,3,Network
'a repeated observation is that the queue extends into the walking area in ece-202 and the issue lasts more than ten minutes and several students are affected at 16:30 case 68',lab,16,42,68,2,Canteen
'an urgent maintenance check is needed because video lectures buffer on the campus connection in cl22-b the network service is affected and several students are affected at 16:05 case 69',lab,16,93,64,1,Network
'students report that several desks have loose or damaged fittings in g6 during a regular teaching period and staff assistance has been requested at 11:19 case 70',academic,11,75,42,4,Infrastructure
'today we noticed that the refill indicator has remained empty in ff6 and several students are affected during a regular teaching period at 10:45 case 73',academic,10,67,79,3,Water
'students report that the wifi signal is unstable for several devices in gate 1 the network service is affected and several students are affected at 8:56 case 74',outdoor,8,26,39,3,Network
'today we noticed that seating capacity is insufficient during the meal break in cl15-b after normal troubleshooting was attempted while the area is moderately occupied at 16:59 case 75',lab,16,75,54,2,Canteen
'staff were informed that a tap continues running after it is closed in student parking after normal troubleshooting was attempted and staff assistance has been requested at 11:36 case 77',outdoor,11,67,75,1,Water
'during the latest session students are waiting too long for food service in student parking the food service operation is affected during a regular teaching period at 16:06 case 78',outdoor,16,28,71,5,Canteen
'an urgent maintenance check is needed because the lunch rush is blocking the entrance in cs1 the food service operation is affected and several students are affected at 13:40 case 79',academic,13,62,64,1,Canteen
'students report that directional signage is unclear for new students in gh corridor 1 campus operations are being disrupted and the condition has become more frequent at 8:47 case 80',hostel,8,75,51,2,Other
'students report that the wifi signal is unstable for several devices in cl3-b and the condition has become more frequent after normal troubleshooting was attempted at 9:51 case 81',lab,9,97,61,2,Network
'an urgent maintenance check is needed because the lunch rush is blocking the entrance in visitor parking during a regular teaching period without any warning notice at 16:11 case 82',outdoor,16,59,60,2,Canteen
'students report that the wifi signal is unstable for several devices in cr201 during a regular teaching period while another campus service remains normal at 10:29 case 83',academic,10,63,50,1,Network
'please investigate because the drinking-water dispenser is empty in h5 corridor 2 the water service needs attention while the area is moderately occupied at 14:13 case 84',hostel,14,57,62,3,Water
'students report that the wifi signal is unstable for several devices in gh common room without any warning notice without any warning notice at 8:36 case 85',hostel,8,26,73,3,Network
'today we noticed that ceiling plaster appears loose near the entrance in dining hall the physical infrastructure needs attention after normal troubleshooting was attempted at 18:00 case 86',food,18,56,35,1,Infrastructure
'a repeated observation is that a campus service is unavailable without an explanation in cl1-b campus operations are being disrupted and the condition has become more frequent at 14:49 case 87',lab,14,67,44,2,Other
'please investigate because parking congestion is blocking access in cl22-a campus operations are being disrupted near the main entrance to the space at 12:36 case 88',lab,12,63,54,3,Other
'a repeated observation is that the wash area needs urgent sanitation in reading hall and it interrupts scheduled teaching while another campus service remains normal at 14:45 case 89',library,14,76,44,2,Cleanliness
'an urgent maintenance check is needed because signage for the room is missing in h5 corridor 2 the physical infrastructure needs attention and several students are affected at 12:56 case 90',hostel,12,55,50,2,Infrastructure
'an urgent maintenance check is needed because the lab printer is unavailable to student systems in washroom 1 while another campus service remains normal and the issue lasts more than ten minutes at 11:08 case 92',utility,11,77,57,4,Lab_Equipment
'today we noticed that the notice board contains outdated information in cr102 without any warning notice and it interrupts scheduled teaching at 17:50 case 93',academic,17,33,30,5,Other
'please investigate because the drinking-water dispenser is empty in cl1-b and several students are affected without any warning notice at 16:52 case 94',lab,16,20,51,3,Water
'a repeated observation is that the queue extends into the walking area in g5 the food service operation is affected although nearby rooms remain usable at 8:35 case 95',academic,8,55,50,2,Canteen
'a repeated observation is that laboratory equipment reports a calibration error in h5 corridor 2 and several students are affected although nearby rooms remain usable at 13:25 case 96',hostel,13,60,44,3,Lab_Equipment
'during the latest session the common area is overcrowded in g2 near the main entrance to the space during a regular teaching period at 13:19 case 97',academic,13,64,51,1,Other
'during the latest session lights flicker repeatedly during use in food court the electrical supply needs inspection although nearby rooms remain usable at 14:09 case 98',food,14,67,76,4,Electrical
'for the second time this week the ventilation fan does not start in cl15-a and the issue lasts more than ten minutes and staff assistance has been requested at 8:58 case 99',lab,8,74,55,4,Electrical
'students report that only one billing counter is open during the rush in cr201 the food service operation is affected although nearby rooms remain usable at 10:09 case 100',academic,10,45,72,3,Canteen
'staff were informed that billing and collection lines are merging into one queue in cr101 the food service operation is affected during a regular teaching period at 13:50 case 101',academic,13,69,56,4,Canteen
'staff were informed that billing and collection lines are merging into one queue in cl15-b although nearby rooms remain usable and the issue lasts more than ten minutes at 9:28 case 102',lab,9,31,91,3,Canteen
'students report that waste bins are overflowing into the corridor in gh corridor 1 and several students are affected and several students are affected at 14:08 case 103',hostel,14,76,59,1,Cleanliness
'please investigate because parking congestion is blocking access in g3 after normal troubleshooting was attempted without any warning notice at 16:44 case 105',academic,16,55,33,1,Other
'a repeated observation is that a power socket is loose and unsafe in g1 while the area is moderately occupied while another campus service remains normal at 11:27 case 106',academic,11,45,58,4,Electrical
'staff were informed that online resources time out during the session in reception and it interrupts scheduled teaching and the issue lasts more than ten minutes at 13:34 case 108',office,13,80,60,1,Network
'please investigate because the service queue is moving very slowly in cl3-a while the area is moderately occupied without any warning notice at 17:19 case 110',lab,17,55,65,4,Canteen
'students report that water is leaking into the walking area in ff6 the water service needs attention and staff assistance has been requested at 9:51 case 111',academic,9,58,43,2,Water
'staff were informed that billing and collection lines are merging into one queue in billing counter the food service operation is affected while the area is moderately occupied at 16:06 case 113',food,16,73,72,3,Canteen
'during the latest session lights flicker repeatedly during use in h5 common room the electrical supply needs inspection and it interrupts scheduled teaching at 17:41 case 114',hostel,17,81,42,1,Electrical
'an urgent maintenance check is needed because pedestrian movement is restricted by stored material in group study campus operations are being disrupted while another campus service remains normal at 18:06 case 115',library,18,57,51,3,Other
'an urgent maintenance check is needed because the lunch rush is blocking the entrance in visitor parking after normal troubleshooting was attempted and the issue lasts more than ten minutes at 10:58 case 116',outdoor,10,70,48,3,Canteen
'today we noticed that network coverage disappears near the back rows in basketball court the network service is affected without any warning notice at 13:13 case 117',sports,13,54,39,2,Network
'today we noticed that multiple computers show storage errors in ff6 laboratory equipment availability is affected while the area is moderately occupied at 10:01 case 118',academic,10,32,50,2,Lab_Equipment
'students report that several desks have loose or damaged fittings in g2 while another campus service remains normal near the main entrance to the space at 12:10 case 119',academic,12,59,63,4,Infrastructure
'a repeated observation is that a power socket is loose and unsafe in cr202 the electrical supply needs inspection near the main entrance to the space at 12:59 case 120',academic,12,48,46,4,Electrical
'staff were informed that the experiment console does not record readings in gate 1 laboratory equipment availability is affected while the area is moderately occupied at 17:58 case 121',outdoor,17,65,68,4,Lab_Equipment
'students report that several desks have loose or damaged fittings in g2 during a regular teaching period without any warning notice at 16:48 case 122',academic,16,89,55,2,Infrastructure
'staff were informed that a tap continues running after it is closed in cl22-a the water service needs attention during a regular teaching period at 15:39 case 123',lab,15,51,52,1,Water
'please investigate because the drinking-water dispenser is empty in ts11 although nearby rooms remain usable while the area is moderately occupied at 11:05 case 124',academic,11,76,77,1,Water
'for the second time this week the wired connection cannot reach institute services in h5 corridor 2 and the condition has become more frequent during a regular teaching period at 10:00 case 125',hostel,10,96,59,3,Network
'for the second time this week the cleaning schedule appears to have been missed in cl15-a while another campus service remains normal and the condition has become more frequent at 10:16 case 126',lab,10,52,60,2,Cleanliness
'today we noticed that charging points are unavailable in ff6 without any warning notice and the issue lasts more than ten minutes at 9:43 case 127',academic,9,61,40,4,Electrical
'staff were informed that the writing surface is damaged and difficult to use in cr101 without any warning notice while the area is moderately occupied at 17:02 case 128',academic,17,67,61,2,Infrastructure
'a repeated observation is that the queue extends into the walking area in ts11 while another campus service remains normal and the issue lasts more than ten minutes at 12:03 case 129',academic,12,75,49,2,Canteen
'for the second time this week the cleaning schedule appears to have been missed in g2 this is a hygiene and cleanliness concern while another campus service remains normal at 8:24 case 130',academic,8,52,40,3,Cleanliness
'a repeated observation is that the queue extends into the walking area in food court the food service operation is affected while another campus service remains normal at 10:01 case 131',food,10,41,57,1,Canteen
'during the latest session students cannot authenticate to the wireless network in cl3-b the network service is affected while the area is moderately occupied at 16:53 case 132',lab,16,59,56,5,Network
'a repeated observation is that the nearest water point is not operational in indoor court the water service needs attention during a regular teaching period at 17:15 case 133',sports,17,53,57,2,Water
'today we noticed that network coverage disappears near the back rows in visitor parking while the area is moderately occupied and the condition has become more frequent at 17:26 case 134',outdoor,17,80,53,4,Network
'please investigate because the service queue is moving very slowly in gym the food service operation is affected and staff assistance has been requested at 18:56 case 135',sports,18,66,45,3,Canteen
'during the latest session a spill has made the floor slippery in cooler b and the condition has become more frequent without any warning notice at 14:25 case 136',utility,14,52,44,3,Cleanliness
'students report that the wifi signal is unstable for several devices in digital area and several students are affected without any warning notice at 8:00 case 137',library,8,59,46,1,Network
'for the second time this week the help desk is closed during published hours in g2 campus operations are being disrupted after normal troubleshooting was attempted at 9:19 case 139',academic,9,77,65,4,Other
'a repeated observation is that laboratory equipment reports a calibration error in cl15-a and the condition has become more frequent after normal troubleshooting was attempted at 8:01 case 141',lab,8,55,43,1,Lab_Equipment
'students report that a monitor and keyboard are not detected in h5 corridor 2 without any warning notice while the area is moderately occupied at 9:36 case 142',hostel,9,56,70,4,Lab_Equipment
'please investigate because the service queue is moving very slowly in dining hall and the condition has become more frequent and the condition has become more frequent at 14:55 case 143',food,14,58,58,1,Network
'during the latest session students cannot authenticate to the wireless network in indoor court the network service is affected after normal troubleshooting was attempted at 14:35 case 144',sports,14,91,49,1,Network
'staff were informed that billing and collection lines are merging into one queue in cl1-a the food service operation is affected near the main entrance to the space at 15:47 case 145',lab,15,47,71,4,Canteen
'today we noticed that seating capacity is insufficient during the meal break in g3 the food service operation is affected while another campus service remains normal at 13:02 case 146',academic,13,79,43,4,Canteen
'staff were informed that dust and litter remain around the workstations in gh common room although nearby rooms remain usable and staff assistance has been requested at 11:10 case 149',hostel,11,79,48,3,Cleanliness
'please investigate because the projector loses its input after a few minutes in g6 the physical infrastructure needs attention and it interrupts scheduled teaching at 14:11 case 150',academic,14,50,64,2,Infrastructure
'students report that the air conditioner stops cooling after midday in digital area the electrical supply needs inspection during a regular teaching period at 9:37 case 151',library,9,63,76,2,Electrical
'staff were informed that online resources time out during the session in cooler b after normal troubleshooting was attempted after normal troubleshooting was attempted at 18:40 case 152',utility,18,64,81,4,Network
'please investigate because the ceiling fans are not operating in group study and the issue lasts more than ten minutes while another campus service remains normal at 17:22 case 156',library,17,65,54,3,Electrical
'during the latest session lights flicker repeatedly during use in cr202 while another campus service remains normal after normal troubleshooting was attempted at 11:50 case 157',academic,11,67,63,2,Electrical
'today we noticed that the refill indicator has remained empty in gate 1 the water service needs attention although nearby rooms remain usable at 15:38 case 158',outdoor,15,63,53,1,Water
'during the latest session students are waiting too long for food service in h4 common room the food service operation is affected without any warning notice at 17:01 case 159',hostel,17,81,36,2,Canteen
'during the latest session a spill has made the floor slippery in cl3-b while another campus service remains normal and the issue lasts more than ten minutes at 14:38 case 160',lab,14,84,62,2,Cleanliness
'today we noticed that multiple computers show storage errors in h5 corridor 1 near the main entrance to the space and the condition has become more frequent at 17:12 case 161',hostel,17,50,66,1,Lab_Equipment
'for the second time this week the device driver is missing from the workstation in cl1-a laboratory equipment availability is affected after normal troubleshooting was attempted at 11:16 case 162',lab,11,70,60,2,Lab_Equipment
'students report that several desks have loose or damaged fittings in h5 corridor 2 during a regular teaching period and staff assistance has been requested at 12:40 case 163',hostel,12,90,45,5,Infrastructure
'staff were informed that online resources time out during the session in ts12 the network service is affected and several students are affected at 17:28 case 164',academic,17,75,72,1,Network
'today we noticed that the refill indicator has remained empty in cs1 the water service needs attention after normal troubleshooting was attempted at 9:19 case 165',academic,9,100,58,1,Water
'during the latest session a spill has made the floor slippery in cl3-b after normal troubleshooting was attempted and several students are affected at 10:52 case 166',lab,10,65,63,2,Cleanliness
'today we noticed that charging points are unavailable in security post although nearby rooms remain usable while another campus service remains normal at 14:58 case 167',outdoor,14,57,85,5,Electrical
'today we noticed that seating capacity is insufficient during the meal break in student parking and it interrupts scheduled teaching while another campus service remains normal at 10:48 case 168',outdoor,10,17,68,2,Canteen
'for the second time this week the ventilation fan does not start in g1 the electrical supply needs inspection and the condition has become more frequent at 11:13 case 169',academic,11,50,20,1,Electrical
'for the second time this week the lecture-room screen does not lower correctly in ts18 and staff assistance has been requested and the condition has become more frequent at 13:31 case 170',academic,13,70,58,3,Infrastructure
'during the latest session water pressure is too low for normal use in food court the water service needs attention after normal troubleshooting was attempted at 15:51 case 171',food,15,68,62,4,Water
'an urgent maintenance check is needed because video lectures buffer on the campus connection in food court and it interrupts scheduled teaching after normal troubleshooting was attempted at 10:06 case 172',food,10,55,57,2,Network
'students report that directional signage is unclear for new students in security post campus operations are being disrupted while the area is moderately occupied at 18:43 case 176',outdoor,18,66,68,2,Other
'today we noticed that charging points are unavailable in cl22-a while another campus service remains normal and it interrupts scheduled teaching at 8:42 case 177',lab,8,64,66,2,Electrical
'staff were informed that an electrical panel is making an unusual sound in g2 the electrical supply needs inspection and staff assistance has been requested at 8:00 case 179',academic,8,24,80,2,Electrical
'today we noticed that seating capacity is insufficient during the meal break in dining hall the food service operation is affected during a regular teaching period at 13:01 case 180',food,13,94,52,4,Canteen
'please investigate because the area has not been cleaned since the morning in ece-202 this is a hygiene and cleanliness concern and several students are affected at 9:32 case 183',lab,9,39,63,1,Cleanliness
'a repeated observation is that the nearest water point is not operational in g6 and several students are affected and the issue lasts more than ten minutes at 16:31 case 184',academic,16,70,56,5,Water
'students report that directional signage is unclear for new students in gate 1 and the condition has become more frequent while the area is moderately occupied at 9:55 case 187',outdoor,9,24,66,5,Other
'students report that water is leaking into the walking area in h5 corridor 2 during a regular teaching period and it interrupts scheduled teaching at 18:45 case 188',hostel,18,58,62,3,Water
'students report that the wifi signal is unstable for several devices in cooler a and staff assistance has been requested while another campus service remains normal at 18:35 case 189',utility,18,48,63,2,Network
'during the latest session students cannot authenticate to the wireless network in h5 common room the network service is affected and the issue lasts more than ten minutes at 8:20 case 190',hostel,8,64,45,4,Network
'a repeated observation is that internet speed falls below a usable level in ts11 the network service is affected and the issue lasts more than ten minutes at 18:23 case 191',academic,18,23,68,3,Network
'please investigate because the projector loses its input after a few minutes in g6 and it interrupts scheduled teaching and several students are affected at 8:02 case 192',academic,8,44,55,4,Infrastructure
'a repeated observation is that a power socket is loose and unsafe in ts18 the electrical supply needs inspection and it interrupts scheduled teaching at 12:21 case 193',academic,12,63,48,3,Electrical
'an urgent maintenance check is needed because a switchboard becomes warm during operation in g2 the electrical supply needs inspection and the condition has become more frequent at 8:42 case 194',academic,8,55,55,2,Electrical
'a repeated observation is that internet speed falls below a usable level in h4 corridor 1 and several students are affected and the condition has become more frequent at 16:56 case 195',hostel,16,50,36,2,Network
'a repeated observation is that internet speed falls below a usable level in academic office and staff assistance has been requested and several students are affected at 8:16 case 197',office,8,70,44,2,Network
'a repeated observation is that internet speed falls below a usable level in h4 corridor 1 the network service is affected near the main entrance to the space at 18:38 case 198',hostel,18,57,54,3,Network
'students report that only one billing counter is open during the rush in dining hall while another campus service remains normal and it interrupts scheduled teaching at 16:39 case 199',food,16,52,65,3,Canteen
'during the latest session lights flicker repeatedly during use in visitor parking the electrical supply needs inspection after normal troubleshooting was attempted at 18:44 case 200',outdoor,18,52,53,4,Electrical
'today we noticed that seating capacity is insufficient during the meal break in h4 corridor 1 the food service operation is affected during a regular teaching period at 14:02 case 201',hostel,14,75,35,1,Canteen
'staff were informed that billing and collection lines are merging into one queue in ts17 although nearby rooms remain usable although nearby rooms remain usable at 14:05 case 202',academic,14,67,57,2,Canteen
'a repeated observation is that a power socket is loose and unsafe in gh common room and several students are affected while another campus service remains normal at 16:08 case 203',hostel,16,69,80,2,Electrical
'an urgent maintenance check is needed because signage for the room is missing in cr202 the physical infrastructure needs attention after normal troubleshooting was attempted at 13:14 case 204',academic,13,100,76,4,Electrical
'staff were informed that an unattended item is obstructing the walkway in main hall campus operations are being disrupted although nearby rooms remain usable at 12:55 case 206',common,12,76,54,3,Other
'an urgent maintenance check is needed because a switchboard becomes warm during operation in indoor court near the main entrance to the space although nearby rooms remain usable at 17:57 case 207',sports,17,54,66,2,Canteen
'staff were informed that the experiment console does not record readings in cs2 laboratory equipment availability is affected during a regular teaching period at 17:22 case 208',academic,17,68,49,1,Lab_Equipment
'please investigate because the projector loses its input after a few minutes in gh corridor 1 the physical infrastructure needs attention and the condition has become more frequent at 8:23 case 209',hostel,8,82,48,2,Network
'staff were informed that online resources time out during the session in cl22-b during a regular teaching period and staff assistance has been requested at 15:45 case 210',lab,15,34,48,4,Network
'students report that directional signage is unclear for new students in ts11 without any warning notice and several students are affected at 13:46 case 211',academic,13,72,36,2,Other
'for the second time this week the cleaning schedule appears to have been missed in academic office and it interrupts scheduled teaching while the area is moderately occupied at 10:57 case 213',office,10,54,59,1,Cleanliness
'for the second time this week the cleaning schedule appears to have been missed in ece-201 after normal troubleshooting was attempted near the main entrance to the space at 13:49 case 214',lab,13,63,38,4,Cleanliness
'today we noticed that the corridor has a persistent hygiene problem in main hall although nearby rooms remain usable and staff assistance has been requested at 16:01 case 215',common,16,73,54,4,Cleanliness
'for the second time this week the wired connection cannot reach institute services in main hall the network service is affected while the area is moderately occupied at 17:04 case 216',common,17,61,54,3,Network
'a repeated observation is that a power socket is loose and unsafe in ts11 the electrical supply needs inspection although nearby rooms remain usable at 16:15 case 217',academic,16,72,44,5,Electrical
'for the second time this week order processing has stopped at one counter in ts18 during a regular teaching period and staff assistance has been requested at 14:03 case 220',academic,14,73,59,1,Canteen
'staff were informed that online resources time out during the session in cl3-b the network service is affected and the condition has become more frequent at 13:18 case 221',lab,13,97,65,4,Network
'an urgent maintenance check is needed because the lab printer is unavailable to student systems in ece-201 and it interrupts scheduled teaching and the condition has become more frequent at 11:33 case 222',lab,11,62,47,4,Lab_Equipment
'students report that only one billing counter is open during the rush in indoor court and staff assistance has been requested near the main entrance to the space at 16:08 case 223',sports,16,61,74,3,Canteen
'during the latest session the classroom door cannot close safely in gh common room after normal troubleshooting was attempted near the main entrance to the space at 18:24 case 226',hostel,18,68,55,3,Infrastructure
'please investigate because the area has not been cleaned since the morning in ff6 this is a hygiene and cleanliness concern and it interrupts scheduled teaching at 12:46 case 227',academic,12,68,54,4,Cleanliness
'students report that the wifi signal is unstable for several devices in washroom 1 without any warning notice and staff assistance has been requested at 15:13 case 228',utility,15,90,55,3,Network
'please investigate because the projector loses its input after a few minutes in ts18 and the issue lasts more than ten minutes while the area is moderately occupied at 16:54 case 230',academic,16,43,47,3,Infrastructure
'today we noticed that the refill indicator has remained empty in digital area while the area is moderately occupied and several students are affected at 15:12 case 232',library,15,40,46,1,Water
'for the second time this week the device driver is missing from the workstation in cl15-a laboratory equipment availability is affected while another campus service remains normal at 9:35 case 233',lab,9,81,75,3,Lab_Equipment
'staff were informed that billing and collection lines are merging into one queue in g5 the food service operation is affected while the area is moderately occupied at 14:56 case 234',academic,14,70,54,4,Canteen
'students report that several desks have loose or damaged fittings in h5 corridor 2 after normal troubleshooting was attempted without any warning notice at 17:26 case 235',hostel,17,64,55,2,Infrastructure
'an urgent maintenance check is needed because signage for the room is missing in gym and it interrupts scheduled teaching and several students are affected at 15:37 case 236',sports,15,55,80,2,Infrastructure
'students report that the wifi signal is unstable for several devices in cl3-b the network service is affected after normal troubleshooting was attempted at 13:11 case 237',lab,13,92,33,2,Network
'students report that a monitor and keyboard are not detected in cooler a laboratory equipment availability is affected near the main entrance to the space at 16:34 case 238',utility,16,74,43,4,Lab_Equipment
'an urgent maintenance check is needed because pedestrian movement is restricted by stored material in g2 without any warning notice while another campus service remains normal at 10:06 case 240',academic,10,69,63,4,Other
'a repeated observation is that the queue extends into the walking area in gh corridor 1 although nearby rooms remain usable and staff assistance has been requested at 11:39 case 241',hostel,11,82,41,1,Canteen
'students report that the air conditioner stops cooling after midday in dining hall the electrical supply needs inspection and the issue lasts more than ten minutes at 8:07 case 242',food,8,82,83,3,Electrical
'during the latest session students are waiting too long for food service in cr201 and several students are affected while another campus service remains normal at 12:27 case 243',academic,12,55,66,2,Canteen
'for the second time this week order processing has stopped at one counter in gh common room and several students are affected and it interrupts scheduled teaching at 14:04 case 244',hostel,14,60,39,1,Canteen
'during the latest session a spill has made the floor slippery in ff6 and several students are affected while another campus service remains normal at 10:03 case 245',academic,10,43,61,3,Cleanliness
'please investigate because several systems freeze during compilation in h4 common room laboratory equipment availability is affected and several students are affected at 8:01 case 246',hostel,8,53,53,3,Lab_Equipment
'a repeated observation is that the nearest water point is not operational in cl3-a and the issue lasts more than ten minutes after normal troubleshooting was attempted at 18:53 case 247',lab,18,75,55,3,Water
'students report that the wifi signal is unstable for several devices in cl3-a the network service is affected and staff assistance has been requested at 10:08 case 248',lab,10,41,48,3,Network
'an urgent maintenance check is needed because a switchboard becomes warm during operation in h4 common room although nearby rooms remain usable and it interrupts scheduled teaching at 18:50 case 249',hostel,18,75,30,3,Electrical
'today we noticed that network coverage disappears near the back rows in g6 the network service is affected although nearby rooms remain usable at 8:43 case 250',academic,8,61,76,1,Network
'for the second time this week the cleaning schedule appears to have been missed in basketball court without any warning notice and the condition has become more frequent at 17:45 case 251',sports,17,48,54,3,Cleanliness
'staff were informed that the writing surface is damaged and difficult to use in ts12 the physical infrastructure needs attention during a regular teaching period at 8:04 case 252',academic,8,83,72,3,Infrastructure
'students report that waste bins are overflowing into the corridor in cs2 after normal troubleshooting was attempted and the issue lasts more than ten minutes at 17:02 case 253',academic,17,16,49,3,Cleanliness
'for the second time this week the lecture-room screen does not lower correctly in academic office the physical infrastructure needs attention after normal troubleshooting was attempted at 15:05 case 254',office,15,63,85,1,Infrastructure
'for the second time this week the cleaning schedule appears to have been missed in g2 although nearby rooms remain usable after normal troubleshooting was attempted at 9:03 case 255',academic,9,48,67,3,Cleanliness
'an urgent maintenance check is needed because the filtration unit shows a service warning in h4 corridor 1 the water service needs attention near the main entrance to the space at 13:15 case 256',hostel,13,83,46,2,Water
'for the second time this week the cleaning schedule appears to have been missed in ts18 this is a hygiene and cleanliness concern although nearby rooms remain usable at 11:24 case 257',academic,11,72,43,4,Cleanliness
'today we noticed that ceiling plaster appears loose near the entrance in cooler b the physical infrastructure needs attention and it interrupts scheduled teaching at 10:31 case 258',utility,10,77,51,1,Infrastructure
'today we noticed that seating capacity is insufficient during the meal break in h4 corridor 2 the food service operation is affected without any warning notice at 12:14 case 260',hostel,12,100,43,5,Canteen
'an urgent maintenance check is needed because signage for the room is missing in ece-201 the physical infrastructure needs attention although nearby rooms remain usable at 12:56 case 261',lab,12,78,43,1,Infrastructure
'during the latest session students cannot authenticate to the wireless network in h4 common room the network service is affected while another campus service remains normal at 18:20 case 262',hostel,18,81,49,1,Network
'staff were informed that the writing surface is damaged and difficult to use in ts18 the physical infrastructure needs attention during a regular teaching period at 12:08 case 263',academic,12,75,78,3,Infrastructure
'please investigate because the service queue is moving very slowly in billing counter and the condition has become more frequent near the main entrance to the space at 17:59 case 264',food,17,75,60,2,Canteen
'for the second time this week the ventilation fan does not start in ts17 during a regular teaching period near the main entrance to the space at 15:51 case 265',academic,15,98,34,3,Electrical
'students report that only one billing counter is open during the rush in cr425 the food service operation is affected and several students are affected at 8:23 case 266',academic,8,38,43,3,Canteen
'staff were informed that an unattended item is obstructing the walkway in gh corridor 1 and several students are affected while the area is moderately occupied at 8:14 case 267',hostel,8,58,55,3,Other
'students report that the wifi signal is unstable for several devices in cl1-a the network service is affected after normal troubleshooting was attempted at 14:14 case 268',lab,14,63,56,2,Network
'for the second time this week the help desk is closed during published hours in visitor parking and the condition has become more frequent and it interrupts scheduled teaching at 17:29 case 269',outdoor,17,41,41,2,Network
'during the latest session the common area is overcrowded in cr102 campus operations are being disrupted and the issue lasts more than ten minutes at 9:57 case 270',academic,9,65,53,2,Other
'please investigate because the drinking-water dispenser is empty in counter a near the main entrance to the space while the area is moderately occupied at 13:06 case 271',food,13,66,42,5,Water
'a repeated observation is that a power socket is loose and unsafe in ts11 the electrical supply needs inspection and the condition has become more frequent at 10:07 case 272',academic,10,69,54,5,Electrical
'an urgent maintenance check is needed because standing water is creating an unhygienic patch in ts11 this is a hygiene and cleanliness concern and it interrupts scheduled teaching at 15:49 case 274',academic,15,52,65,4,Cleanliness
'please investigate because several systems freeze during compilation in g5 after normal troubleshooting was attempted during a regular teaching period at 8:37 case 275',academic,8,74,61,4,Lab_Equipment
'an urgent maintenance check is needed because standing water is creating an unhygienic patch in food court after normal troubleshooting was attempted and staff assistance has been requested at 8:35 case 276',food,8,81,70,2,Cleanliness
'students report that the wifi signal is unstable for several devices in ece-201 near the main entrance to the space and several students are affected at 9:45 case 278',lab,9,55,86,1,Network
'for the second time this week the help desk is closed during published hours in ece-201 campus operations are being disrupted and the condition has become more frequent at 12:54 case 279',lab,12,67,64,5,Other
'students report that the air conditioner stops cooling after midday in backstage after normal troubleshooting was attempted after normal troubleshooting was attempted at 17:42 case 281',common,17,68,54,3,Electrical
'a repeated observation is that a campus service is unavailable without an explanation in cr102 and the issue lasts more than ten minutes although nearby rooms remain usable at 9:16 case 282',academic,9,39,23,4,Other
'an urgent maintenance check is needed because a switchboard becomes warm during operation in student parking the electrical supply needs inspection and several students are affected at 16:07 case 283',outdoor,16,50,50,2,Electrical
'staff were informed that billing and collection lines are merging into one queue in cr201 without any warning notice while another campus service remains normal at 14:19 case 284',academic,14,57,39,2,Canteen
'students report that directional signage is unclear for new students in h4 corridor 2 campus operations are being disrupted and several students are affected at 14:28 case 285',hostel,14,52,88,4,Other
'please investigate because parking congestion is blocking access in h4 common room near the main entrance to the space after normal troubleshooting was attempted at 10:34 case 287',hostel,10,56,48,3,Other
'students report that several desks have loose or damaged fittings in h5 common room during a regular teaching period and several students are affected at 16:16 case 288',hostel,16,82,56,1,Infrastructure
'today we noticed that charging points are unavailable in ece-201 during a regular teaching period during a regular teaching period at 17:31 case 289',lab,17,53,57,2,Electrical
'today we noticed that multiple computers show storage errors in cl22-a laboratory equipment availability is affected and the condition has become more frequent at 14:26 case 290',lab,14,85,72,1,Lab_Equipment
'students report that waste bins are overflowing into the corridor in gate 1 while another campus service remains normal and the issue lasts more than ten minutes at 14:41 case 291',outdoor,14,78,60,2,Cleanliness
'during the latest session students cannot authenticate to the wireless network in h5 corridor 2 while the area is moderately occupied and the condition has become more frequent at 11:34 case 292',hostel,11,83,50,2,Network
'students report that several desks have loose or damaged fittings in food court the physical infrastructure needs attention during a regular teaching period at 14:46 case 293',food,14,60,32,2,Infrastructure
'staff were informed that the experiment console does not record readings in g3 while the area is moderately occupied and the issue lasts more than ten minutes at 18:25 case 294',academic,18,75,66,2,Lab_Equipment
'please investigate because the service queue is moving very slowly in g2 the food service operation is affected and the condition has become more frequent at 17:22 case 295',academic,17,67,47,4,Canteen
'please investigate because the campus network drops repeatedly during class in ts11 the network service is affected after normal troubleshooting was attempted at 14:12 case 296',academic,14,65,79,2,Network
'please investigate because the drinking-water dispenser is empty in g2 the water service needs attention and the condition has become more frequent at 17:07 case 297',academic,17,71,50,2,Water
'please investigate because the service queue is moving very slowly in cl22-a the food service operation is affected although nearby rooms remain usable at 14:30 case 298',lab,14,61,20,3,Canteen
'staff were informed that an electrical panel is making an unusual sound in reception the electrical supply needs inspection although nearby rooms remain usable at 18:19 case 299',office,18,75,77,4,Electrical
'students report that the wifi signal is unstable for several devices in cr201 while the area is moderately occupied without any warning notice at 16:03 case 300',academic,16,80,58,3,Network
'please investigate because the drinking-water dispenser is empty in gh corridor 1 the water service needs attention and the issue lasts more than ten minutes at 9:34 case 301',hostel,9,36,58,4,Water
'today we noticed that multiple computers show storage errors in g6 and the condition has become more frequent and the condition has become more frequent at 16:28 case 302',academic,16,52,47,5,Lab_Equipment
'today we noticed that ceiling plaster appears loose near the entrance in cr202 the physical infrastructure needs attention after normal troubleshooting was attempted at 12:37 case 303',academic,12,93,67,2,Infrastructure
'during the latest session the classroom door cannot close safely in gate 1 after normal troubleshooting was attempted and several students are affected at 8:25 case 305',outdoor,8,27,58,4,Infrastructure
'today we noticed that multiple computers show storage errors in cl15-a laboratory equipment availability is affected without any warning notice at 13:13 case 306',lab,13,50,95,5,Lab_Equipment
'today we noticed that ceiling plaster appears loose near the entrance in cl22-a the physical infrastructure needs attention and several students are affected at 15:15 case 307',lab,15,41,61,3,Infrastructure
'an urgent maintenance check is needed because the lunch rush is blocking the entrance in student parking the food service operation is affected during a regular teaching period at 14:08 case 308',outdoor,14,80,62,5,Canteen
'a repeated observation is that the wash area needs urgent sanitation in cr101 and several students are affected and the condition has become more frequent at 15:21 case 309',academic,15,50,48,2,Cleanliness
'during the latest session water pressure is too low for normal use in cr425 the water service needs attention and several students are affected at 17:22 case 310',academic,17,50,74,3,Electrical
'please investigate because the service queue is moving very slowly in cooler a the food service operation is affected after normal troubleshooting was attempted at 13:01 case 313',utility,13,88,43,3,Canteen
'please investigate because the campus network drops repeatedly during class in cl3-b the network service is affected and it interrupts scheduled teaching at 17:41 case 314',lab,17,50,67,3,Network
'staff were informed that online resources time out during the session in backstage while another campus service remains normal while the area is moderately occupied at 17:21 case 315',common,17,80,51,3,Network
'a repeated observation is that laboratory equipment reports a calibration error in cl22-b laboratory equipment availability is affected while another campus service remains normal at 10:57 case 316',lab,10,85,52,4,Lab_Equipment
'during the latest session students are waiting too long for food service in cl22-b the food service operation is affected and staff assistance has been requested at 14:14 case 317',lab,14,80,55,2,Canteen
'please investigate because the service queue is moving very slowly in counter a after normal troubleshooting was attempted without any warning notice at 14:26 case 318',food,14,84,56,4,Canteen
'during the latest session a spill has made the floor slippery in g6 this is a hygiene and cleanliness concern and several students are affected at 11:15 case 320',academic,11,65,62,2,Cleanliness
'during the latest session students are waiting too long for food service in ece-202 without any warning notice although nearby rooms remain usable at 17:47 case 321',lab,17,31,69,2,Other
'an urgent maintenance check is needed because the lunch rush is blocking the entrance in cooler b the food service operation is affected and staff assistance has been requested at 11:48 case 322',utility,11,67,75,2,Canteen
'students report that several desks have loose or damaged fittings in dining hall while the area is moderately occupied although nearby rooms remain usable at 16:53 case 323',food,16,41,66,4,Infrastructure
'staff were informed that the writing surface is damaged and difficult to use in security post and several students are affected near the main entrance to the space at 15:50 case 324',outdoor,15,54,61,2,Cleanliness
'please investigate because the campus network drops repeatedly during class in cl22-b after normal troubleshooting was attempted without any warning notice at 11:09 case 325',lab,11,82,42,4,Network
'an urgent maintenance check is needed because standing water is creating an unhygienic patch in ts12 while the area is moderately occupied and the issue lasts more than ten minutes at 11:18 case 326',academic,11,51,66,2,Cleanliness
'for the second time this week order processing has stopped at one counter in ts11 without any warning notice near the main entrance to the space at 12:41 case 327',academic,12,97,52,2,Canteen
'a repeated observation is that the queue extends into the walking area in counter a without any warning notice although nearby rooms remain usable at 14:27 case 328',food,14,87,70,2,Canteen
'today we noticed that network coverage disappears near the back rows in cr201 without any warning notice after normal troubleshooting was attempted at 17:42 case 330',academic,17,32,46,2,Network
'please investigate because the drinking-water dispenser is empty in h5 common room the water service needs attention while another campus service remains normal at 15:35 case 331',hostel,15,85,44,3,Water
'students report that only one billing counter is open during the rush in billing counter the food service operation is affected and the issue lasts more than ten minutes at 11:39 case 333',food,11,76,35,4,Canteen
'an urgent maintenance check is needed because the lunch rush is blocking the entrance in basketball court and the condition has become more frequent and the condition has become more frequent at 17:48 case 334',sports,17,54,57,4,Canteen
'an urgent maintenance check is needed because signage for the room is missing in cr201 while another campus service remains normal after normal troubleshooting was attempted at 18:14 case 335',academic,18,33,42,3,Infrastructure
'students report that water is leaking into the walking area in cr201 during a regular teaching period while the area is moderately occupied at 11:18 case 336',academic,11,51,73,3,Water
'today we noticed that multiple computers show storage errors in cr202 laboratory equipment availability is affected and staff assistance has been requested at 17:24 case 338',academic,17,58,46,4,Lab_Equipment
'a repeated observation is that laboratory equipment reports a calibration error in ts18 after normal troubleshooting was attempted and several students are affected at 18:40 case 339',academic,18,43,39,4,Lab_Equipment
'students report that the air conditioner stops cooling after midday in visitor parking near the main entrance to the space during a regular teaching period at 14:36 case 340',outdoor,14,97,46,2,Electrical
'a repeated observation is that a power socket is loose and unsafe in ff6 and the condition has become more frequent although nearby rooms remain usable at 8:44 case 342',academic,8,58,41,1,Electrical
'please investigate because the service queue is moving very slowly in cr202 while the area is moderately occupied although nearby rooms remain usable at 12:41 case 343',academic,12,49,27,2,Canteen
'today we noticed that seating capacity is insufficient during the meal break in g2 while another campus service remains normal although nearby rooms remain usable at 8:25 case 344',academic,8,50,56,4,Canteen
'staff were informed that dust and litter remain around the workstations in reading hall this is a hygiene and cleanliness concern and staff assistance has been requested at 8:12 case 346',library,8,51,36,4,Cleanliness
'staff were informed that online resources time out during the session in g3 the network service is affected and it interrupts scheduled teaching at 16:06 case 348',academic,16,42,69,4,Network
'staff were informed that billing and collection lines are merging into one queue in h5 corridor 2 the food service operation is affected and the condition has become more frequent at 18:31 case 350',hostel,18,45,33,1,Canteen
'please investigate because the drinking-water dispenser is empty in basketball court the water service needs attention without any warning notice at 12:00 case 351',sports,12,55,47,3,Water
'staff were informed that online resources time out during the session in ece-201 while another campus service remains normal and the condition has become more frequent at 18:16 case 353',lab,18,30,54,2,Network
'please investigate because parking congestion is blocking access in reading hall campus operations are being disrupted and the condition has become more frequent at 9:18 case 357',library,9,67,63,4,Other
'today we noticed that seating capacity is insufficient during the meal break in g3 although nearby rooms remain usable while the area is moderately occupied at 15:13 case 358',academic,15,78,40,2,Canteen
'please investigate because the projector loses its input after a few minutes in reception near the main entrance to the space and several students are affected at 8:03 case 359',office,8,29,45,3,Infrastructure
'for the second time this week order processing has stopped at one counter in cs2 the food service operation is affected and several students are affected at 8:14 case 362',academic,8,37,42,2,Canteen
'today we noticed that multiple computers show storage errors in cr202 during a regular teaching period during a regular teaching period at 16:54 case 363',academic,16,64,51,3,Lab_Equipment
'students report that directional signage is unclear for new students in cr102 campus operations are being disrupted and several students are affected at 16:10 case 364',academic,16,48,47,1,Other
'please investigate because the campus network drops repeatedly during class in cl22-a the network service is affected and the issue lasts more than ten minutes at 9:38 case 365',lab,9,62,51,3,Network
'today we noticed that charging points are unavailable in reception and staff assistance has been requested during a regular teaching period at 8:34 case 366',office,8,33,41,4,Electrical
'students report that several desks have loose or damaged fittings in counter a the physical infrastructure needs attention without any warning notice at 12:16 case 367',food,12,80,49,4,Infrastructure
'for the second time this week the lecture-room screen does not lower correctly in ts17 the physical infrastructure needs attention and several students are affected at 9:25 case 368',academic,9,44,50,3,Infrastructure
'an urgent maintenance check is needed because the lab printer is unavailable to student systems in ts11 laboratory equipment availability is affected and it interrupts scheduled teaching at 9:36 case 369',academic,9,29,58,3,Lab_Equipment
'students report that a monitor and keyboard are not detected in cr202 and the condition has become more frequent after normal troubleshooting was attempted at 11:24 case 371',academic,11,63,68,4,Lab_Equipment
'a repeated observation is that laboratory equipment reports a calibration error in cl1-b during a regular teaching period and staff assistance has been requested at 17:19 case 372',lab,17,42,52,3,Canteen
'for the second time this week order processing has stopped at one counter in ts18 the food service operation is affected and it interrupts scheduled teaching at 16:43 case 373',academic,16,54,55,4,Canteen
'during the latest session the classroom door cannot close safely in cooler b while another campus service remains normal and the condition has become more frequent at 18:37 case 374',utility,18,64,64,3,Infrastructure
'for the second time this week the help desk is closed during published hours in ts18 campus operations are being disrupted during a regular teaching period at 15:49 case 377',academic,15,18,46,4,Other
'during the latest session the common area is overcrowded in cooler a campus operations are being disrupted near the main entrance to the space at 12:12 case 378',utility,12,76,63,2,Other
'during the latest session students are waiting too long for food service in basketball court without any warning notice while another campus service remains normal at 12:56 case 379',sports,12,91,41,4,Canteen
'a repeated observation is that a campus service is unavailable without an explanation in dining hall campus operations are being disrupted while the area is moderately occupied at 11:20 case 380',food,11,100,59,4,Other
'during the latest session students cannot authenticate to the wireless network in g1 the network service is affected while the area is moderately occupied at 18:49 case 381',academic,18,50,70,2,Network
'please investigate because the campus network drops repeatedly during class in cooler a after normal troubleshooting was attempted during a regular teaching period at 16:59 case 382',utility,16,73,46,2,Network
'please investigate because the campus network drops repeatedly during class in visitor parking after normal troubleshooting was attempted without any warning notice at 11:07 case 383',outdoor,11,58,50,4,Network
'a repeated observation is that the display cable and wall port need repair in cr201 although nearby rooms remain usable without any warning notice at 8:09 case 384',academic,8,59,68,3,Infrastructure
'staff were informed that an unattended item is obstructing the walkway in g5 campus operations are being disrupted without any warning notice at 15:22 case 385',academic,15,64,45,2,Other
'a repeated observation is that the display cable and wall port need repair in g5 the physical infrastructure needs attention while the area is moderately occupied at 16:41 case 386',academic,16,82,49,2,Infrastructure
'during the latest session the workstation cannot boot for the practical in g2 laboratory equipment availability is affected near the main entrance to the space at 11:13 case 387',academic,11,72,56,2,Lab_Equipment
'during the latest session a spill has made the floor slippery in backstage this is a hygiene and cleanliness concern and the issue lasts more than ten minutes at 18:13 case 388',common,18,73,47,4,Cleanliness
'a repeated observation is that internet speed falls below a usable level in reading hall the network service is affected and the condition has become more frequent at 16:06 case 390',library,16,48,26,4,Network
'a repeated observation is that the queue extends into the walking area in cr102 near the main entrance to the space while the area is moderately occupied at 15:07 case 391',academic,15,72,47,1,Canteen
'please investigate because the campus network drops repeatedly during class in cooler b and the issue lasts more than ten minutes near the main entrance to the space at 18:48 case 392',utility,18,51,57,3,Network
'please investigate because the service queue is moving very slowly in dining hall near the main entrance to the space without any warning notice at 9:51 case 393',food,9,83,40,4,Canteen
'staff were informed that an unattended item is obstructing the walkway in ff6 without any warning notice and staff assistance has been requested at 10:21 case 394',academic,10,18,62,3,Other
'today we noticed that the corridor has a persistent hygiene problem in cl3-b and staff assistance has been requested and the condition has become more frequent at 9:26 case 395',lab,9,58,62,3,Cleanliness
'please investigate because the projector loses its input after a few minutes in billing counter the physical infrastructure needs attention near the main entrance to the space at 15:32 case 396',food,15,33,39,2,Infrastructure
'staff were informed that the experiment console does not record readings in cl22-b without any warning notice and the condition has become more frequent at 10:04 case 397',lab,10,13,52,5,Lab_Equipment
'for the second time this week order processing has stopped at one counter in dining hall after normal troubleshooting was attempted and the issue lasts more than ten minutes at 12:58 case 398',food,12,37,67,2,Canteen
'for the second time this week the wired connection cannot reach institute services in cr101 the network service is affected near the main entrance to the space at 11:00 case 399',academic,11,100,38,4,Network
'for the second time this week the help desk is closed during published hours in ts18 after normal troubleshooting was attempted during a regular teaching period at 17:55 case 400',academic,17,77,42,2,Other
'please investigate because parking congestion is blocking access in basketball court campus operations are being disrupted and it interrupts scheduled teaching at 14:24 case 402',sports,14,76,71,2,Other
'an urgent maintenance check is needed because standing water is creating an unhygienic patch in digital area and the issue lasts more than ten minutes and the condition has become more frequent at 8:39 case 403',library,8,50,51,5,Cleanliness
'students report that several desks have loose or damaged fittings in cl15-b although nearby rooms remain usable without any warning notice at 9:53 case 404',lab,9,77,67,2,Infrastructure
'students report that several desks have loose or damaged fittings in g6 the physical infrastructure needs attention and staff assistance has been requested at 10:18 case 405',academic,10,90,51,4,Infrastructure
'students report that a monitor and keyboard are not detected in basketball court laboratory equipment availability is affected while another campus service remains normal at 11:44 case 406',sports,11,82,64,3,Lab_Equipment
'students report that a monitor and keyboard are not detected in digital area laboratory equipment availability is affected near the main entrance to the space at 17:08 case 407',library,17,45,43,3,Lab_Equipment
'students report that only one billing counter is open during the rush in washroom g near the main entrance to the space near the main entrance to the space at 12:30 case 408',utility,12,92,50,3,Canteen
'students report that several desks have loose or damaged fittings in billing counter after normal troubleshooting was attempted and the issue lasts more than ten minutes at 12:40 case 409',food,12,40,53,2,Infrastructure
'staff were informed that the experiment console does not record readings in h4 common room laboratory equipment availability is affected while another campus service remains normal at 8:19 case 410',hostel,8,49,70,4,Lab_Equipment
'for the second time this week the device driver is missing from the workstation in gh corridor 1 and the issue lasts more than ten minutes and several students are affected at 18:54 case 411',hostel,18,70,40,4,Lab_Equipment
'staff were informed that dust and litter remain around the workstations in ts11 while the area is moderately occupied while another campus service remains normal at 13:00 case 412',academic,13,77,59,2,Cleanliness
'a repeated observation is that the display cable and wall port need repair in main hall the physical infrastructure needs attention and it interrupts scheduled teaching at 13:25 case 413',common,13,82,55,2,Cleanliness
'a repeated observation is that a power socket is loose and unsafe in h4 common room during a regular teaching period and the issue lasts more than ten minutes at 10:23 case 414',hostel,10,97,52,2,Other
'please investigate because the service queue is moving very slowly in cr425 the food service operation is affected and staff assistance has been requested at 17:06 case 415',academic,17,52,64,3,Canteen
'today we noticed that multiple computers show storage errors in reading hall while the area is moderately occupied and the issue lasts more than ten minutes at 8:34 case 417',library,8,68,32,5,Lab_Equipment
'an urgent maintenance check is needed because the lunch rush is blocking the entrance in food court the food service operation is affected near the main entrance to the space at 13:47 case 418',food,13,77,64,1,Canteen
'an urgent maintenance check is needed because a switchboard becomes warm during operation in h5 corridor 1 near the main entrance to the space while the area is moderately occupied at 8:20 case 419',hostel,8,55,72,3,Electrical
'an urgent maintenance check is needed because signage for the room is missing in cr201 although nearby rooms remain usable and the issue lasts more than ten minutes at 18:46 case 420',academic,18,99,42,2,Infrastructure
'today we noticed that the corridor has a persistent hygiene problem in food court this is a hygiene and cleanliness concern and it interrupts scheduled teaching at 12:50 case 421',food,12,69,48,5,Infrastructure
'an urgent maintenance check is needed because video lectures buffer on the campus connection in cs1 during a regular teaching period after normal troubleshooting was attempted at 14:05 case 422',academic,14,75,55,2,Network
'staff were informed that online resources time out during the session in h4 corridor 2 the network service is affected while the area is moderately occupied at 10:10 case 423',hostel,10,85,52,2,Network
'today we noticed that the refill indicator has remained empty in ts12 the water service needs attention while the area is moderately occupied at 14:45 case 424',academic,14,100,57,3,Other
'today we noticed that ceiling plaster appears loose near the entrance in h5 corridor 2 the physical infrastructure needs attention while another campus service remains normal at 9:20 case 425',hostel,9,35,47,2,Infrastructure
'for the second time this week the lecture-room screen does not lower correctly in g6 and staff assistance has been requested near the main entrance to the space at 17:11 case 426',academic,17,65,60,2,Infrastructure
'students report that the wifi signal is unstable for several devices in g2 the network service is affected while another campus service remains normal at 13:04 case 427',academic,13,57,42,5,Network
'for the second time this week the help desk is closed during published hours in security post campus operations are being disrupted and staff assistance has been requested at 11:49 case 428',outdoor,11,64,34,1,Infrastructure
'a repeated observation is that the queue extends into the walking area in g1 while another campus service remains normal and the issue lasts more than ten minutes at 10:22 case 429',academic,10,94,49,1,Canteen
'please investigate because the campus network drops repeatedly during class in cl22-a the network service is affected and it interrupts scheduled teaching at 15:54 case 430',lab,15,61,40,3,Network
'a repeated observation is that a power socket is loose and unsafe in ts17 the electrical supply needs inspection and it interrupts scheduled teaching at 8:47 case 432',academic,8,45,52,1,Electrical
'today we noticed that multiple computers show storage errors in cl15-b laboratory equipment availability is affected while another campus service remains normal at 13:26 case 433',lab,13,55,51,4,Lab_Equipment
'please investigate because the ceiling fans are not operating in h4 corridor 2 the electrical supply needs inspection near the main entrance to the space at 18:49 case 434',hostel,18,80,30,1,Electrical
'for the second time this week the device driver is missing from the workstation in h5 corridor 1 after normal troubleshooting was attempted after normal troubleshooting was attempted at 14:20 case 435',hostel,14,64,65,3,Lab_Equipment
'a repeated observation is that the queue extends into the walking area in g5 the food service operation is affected while another campus service remains normal at 18:01 case 436',academic,18,79,48,2,Canteen
'an urgent maintenance check is needed because pedestrian movement is restricted by stored material in main hall campus operations are being disrupted although nearby rooms remain usable at 11:05 case 437',common,11,98,49,4,Other
'please investigate because the service queue is moving very slowly in washroom 1 during a regular teaching period and it interrupts scheduled teaching at 18:45 case 439',utility,18,62,26,3,Canteen
'during the latest session the common area is overcrowded in cl3-b while another campus service remains normal and several students are affected at 8:17 case 440',lab,8,57,36,1,Other
'staff were informed that the writing surface is damaged and difficult to use in ts17 after normal troubleshooting was attempted near the main entrance to the space at 18:46 case 441',academic,18,43,56,4,Infrastructure
'an urgent maintenance check is needed because the filtration unit shows a service warning in g3 the water service needs attention and staff assistance has been requested at 15:35 case 442',academic,15,71,48,3,Water
'a repeated observation is that the wash area needs urgent sanitation in cl15-b this is a hygiene and cleanliness concern during a regular teaching period at 18:34 case 443',lab,18,48,63,3,Cleanliness
'during the latest session the classroom door cannot close safely in cr201 during a regular teaching period and the issue lasts more than ten minutes at 13:48 case 444',academic,13,91,44,4,Infrastructure
'for the second time this week the device driver is missing from the workstation in ts17 laboratory equipment availability is affected while another campus service remains normal at 9:34 case 445',academic,9,51,61,3,Lab_Equipment
'during the latest session the common area is overcrowded in washroom g campus operations are being disrupted during a regular teaching period at 13:11 case 446',utility,13,74,50,1,Other
'students report that the air conditioner stops cooling after midday in reading hall the electrical supply needs inspection although nearby rooms remain usable at 17:20 case 447',library,17,61,63,1,Electrical
'a repeated observation is that a power socket is loose and unsafe in h4 common room while the area is moderately occupied after normal troubleshooting was attempted at 11:59 case 448',hostel,11,93,81,3,Electrical
'please investigate because the drinking-water dispenser is empty in main hall and it interrupts scheduled teaching and the condition has become more frequent at 12:55 case 449',common,12,69,51,2,Water
'today we noticed that ceiling plaster appears loose near the entrance in g2 the physical infrastructure needs attention and it interrupts scheduled teaching at 10:49 case 450',academic,10,66,62,2,Infrastructure
'an urgent maintenance check is needed because signage for the room is missing in visitor parking the physical infrastructure needs attention and the condition has become more frequent at 15:31 case 452',outdoor,15,40,54,3,Infrastructure
'an urgent maintenance check is needed because the lunch rush is blocking the entrance in counter a near the main entrance to the space and the issue lasts more than ten minutes at 10:59 case 453',food,10,36,72,5,Canteen
'during the latest session a spill has made the floor slippery in ece-201 without any warning notice while the area is moderately occupied at 10:10 case 454',lab,10,45,54,5,Cleanliness
'staff were informed that billing and collection lines are merging into one queue in food court the food service operation is affected without any warning notice at 14:27 case 456',food,14,46,51,4,Canteen
'staff were informed that an unattended item is obstructing the walkway in cs2 campus operations are being disrupted and the condition has become more frequent at 15:24 case 457',academic,15,24,60,1,Other
'students report that several desks have loose or damaged fittings in g2 and it interrupts scheduled teaching during a regular teaching period at 8:09 case 458',academic,8,47,59,3,Infrastructure
'please investigate because the ceiling fans are not operating in basketball court the electrical supply needs inspection without any warning notice at 17:54 case 460',sports,17,85,78,2,Electrical
'an urgent maintenance check is needed because the lunch rush is blocking the entrance in cr101 during a regular teaching period near the main entrance to the space at 10:39 case 461',academic,10,47,65,4,Canteen
'during the latest session the classroom door cannot close safely in cs1 the physical infrastructure needs attention while the area is moderately occupied at 13:13 case 462',academic,13,85,49,5,Infrastructure
'a repeated observation is that a power socket is loose and unsafe in cl15-b without any warning notice during a regular teaching period at 10:47 case 463',lab,10,70,44,1,Electrical
'a repeated observation is that the display cable and wall port need repair in academic office while the area is moderately occupied while another campus service remains normal at 8:14 case 464',office,8,51,67,2,Infrastructure
'for the second time this week the help desk is closed during published hours in gate 1 and staff assistance has been requested and the issue lasts more than ten minutes at 11:27 case 465',outdoor,11,100,63,1,Canteen
'during the latest session water pressure is too low for normal use in cooler b the water service needs attention during a regular teaching period at 12:13 case 466',utility,12,85,76,4,Water
'an urgent maintenance check is needed because the lunch rush is blocking the entrance in indoor court the food service operation is affected without any warning notice at 13:29 case 467',sports,13,82,43,3,Infrastructure
'please investigate because the campus network drops repeatedly during class in reading hall and it interrupts scheduled teaching and staff assistance has been requested at 13:48 case 468',library,13,62,52,3,Network
'today we noticed that seating capacity is insufficient during the meal break in backstage and the issue lasts more than ten minutes while another campus service remains normal at 13:51 case 470',common,13,80,65,3,Canteen
'an urgent maintenance check is needed because signage for the room is missing in dining hall during a regular teaching period and several students are affected at 15:43 case 471',food,15,63,60,1,Infrastructure
'an urgent maintenance check is needed because video lectures buffer on the campus connection in g3 the network service is affected during a regular teaching period at 16:20 case 472',academic,16,64,73,2,Network
'students report that water is leaking into the walking area in ts12 the water service needs attention while the area is moderately occupied at 10:30 case 473',academic,10,40,55,2,Water
'staff were informed that dust and litter remain around the workstations in dining hall and the issue lasts more than ten minutes and several students are affected at 10:13 case 474',food,10,53,56,3,Cleanliness
'a repeated observation is that the queue extends into the walking area in billing counter although nearby rooms remain usable and it interrupts scheduled teaching at 18:20 case 475',food,18,51,80,5,Canteen
'during the latest session the common area is overcrowded in student parking and the issue lasts more than ten minutes although nearby rooms remain usable at 12:48 case 476',outdoor,12,64,38,5,Other
'for the second time this week the help desk is closed during published hours in backstage campus operations are being disrupted while the area is moderately occupied at 12:54 case 478',common,12,73,27,5,Other
'for the second time this week water is collecting beneath the dispenser in cs1 the water service needs attention although nearby rooms remain usable at 18:45 case 479',academic,18,33,44,4,Water
'for the second time this week the lecture-room screen does not lower correctly in g2 the physical infrastructure needs attention during a regular teaching period at 9:00 case 480',academic,9,86,46,5,Infrastructure
'an urgent maintenance check is needed because signage for the room is missing in main hall the physical infrastructure needs attention and the issue lasts more than ten minutes at 10:32 case 482',common,10,55,74,3,Infrastructure
'for the second time this week the ventilation fan does not start in cl1-b although nearby rooms remain usable after normal troubleshooting was attempted at 11:53 case 483',lab,11,54,72,2,Electrical
'today we noticed that charging points are unavailable in cs2 the electrical supply needs inspection without any warning notice at 16:33 case 484',academic,16,73,53,2,Electrical
'an urgent maintenance check is needed because the filtration unit shows a service warning in washroom g the water service needs attention near the main entrance to the space at 15:51 case 485',utility,15,52,73,4,Water
'during the latest session the workstation cannot boot for the practical in digital area laboratory equipment availability is affected and the issue lasts more than ten minutes at 18:49 case 486',library,18,77,54,4,Lab_Equipment
'staff were informed that online resources time out during the session in ts12 without any warning notice during a regular teaching period at 14:51 case 487',academic,14,70,46,1,Network
'students report that a monitor and keyboard are not detected in reception and it interrupts scheduled teaching and the condition has become more frequent at 9:21 case 488',office,9,47,67,3,Lab_Equipment
'a repeated observation is that the wash area needs urgent sanitation in ts18 this is a hygiene and cleanliness concern while another campus service remains normal at 8:01 case 489',academic,8,57,57,3,Cleanliness
'today we noticed that multiple computers show storage errors in gate 1 during a regular teaching period during a regular teaching period at 9:42 case 490',outdoor,9,82,74,5,Lab_Equipment
'please investigate because the drinking-water dispenser is empty in cr101 near the main entrance to the space and it interrupts scheduled teaching at 15:20 case 491',academic,15,62,48,5,Network
'a repeated observation is that the queue extends into the walking area in h4 corridor 2 the food service operation is affected although nearby rooms remain usable at 18:48 case 492',hostel,18,85,62,2,Canteen
'today we noticed that the refill indicator has remained empty in gym and the issue lasts more than ten minutes after normal troubleshooting was attempted at 11:25 case 493',sports,11,56,45,2,Water
'during the latest session the workstation cannot boot for the practical in cl3-a and it interrupts scheduled teaching and the condition has become more frequent at 15:29 case 494',lab,15,53,63,2,Lab_Equipment
'please investigate because the ceiling fans are not operating in washroom g near the main entrance to the space and it interrupts scheduled teaching at 16:25 case 495',utility,16,81,87,3,Electrical
'during the latest session students cannot authenticate to the wireless network in cl22-a after normal troubleshooting was attempted without any warning notice at 12:18 case 497',lab,12,62,47,2,Network
'staff were informed that the experiment console does not record readings in g2 laboratory equipment availability is affected and the condition has become more frequent at 10:27 case 498',academic,10,66,56,3,Lab_Equipment
'today we noticed that charging points are unavailable in academic office the electrical supply needs inspection during a regular teaching period at 17:29 case 500',office,17,73,54,2,Electrical
'an urgent maintenance check is needed because video lectures buffer on the campus connection in billing counter the network service is affected and staff assistance has been requested at 14:01 case 501',food,14,76,49,3,Network
'today we noticed that network coverage disappears near the back rows in g1 near the main entrance to the space and staff assistance has been requested at 16:25 case 502',academic,16,79,52,4,Network
'a repeated observation is that the queue extends into the walking area in cl22-b after normal troubleshooting was attempted and it interrupts scheduled teaching at 15:27 case 504',lab,15,76,82,5,Canteen
'during the latest session the classroom door cannot close safely in cr202 the physical infrastructure needs attention and it interrupts scheduled teaching at 13:05 case 505',academic,13,86,56,3,Infrastructure
'for the second time this week the device driver is missing from the workstation in cl15-a laboratory equipment availability is affected during a regular teaching period at 10:54 case 506',lab,10,62,62,3,Lab_Equipment
'an urgent maintenance check is needed because the lab printer is unavailable to student systems in cl1-b laboratory equipment availability is affected and it interrupts scheduled teaching at 8:28 case 508',lab,8,62,58,2,Lab_Equipment
'for the second time this week the ventilation fan does not start in group study the electrical supply needs inspection after normal troubleshooting was attempted at 12:39 case 509',library,12,71,20,1,Electrical
'for the second time this week the device driver is missing from the workstation in h5 common room and staff assistance has been requested and staff assistance has been requested at 9:44 case 510',hostel,9,65,60,2,Lab_Equipment
'for the second time this week water is collecting beneath the dispenser in ff6 without any warning notice and the condition has become more frequent at 18:41 case 511',academic,18,42,32,3,Water
'students report that only one billing counter is open during the rush in billing counter the food service operation is affected and the issue lasts more than ten minutes at 13:12 case 513',food,13,71,47,4,Canteen
'an urgent maintenance check is needed because video lectures buffer on the campus connection in gh corridor 1 the network service is affected and the issue lasts more than ten minutes at 12:10 case 514',hostel,12,100,35,3,Network
'a repeated observation is that internet speed falls below a usable level in gh common room and it interrupts scheduled teaching and several students are affected at 14:28 case 515',hostel,14,66,52,3,Network
'during the latest session students cannot authenticate to the wireless network in ff6 while another campus service remains normal while another campus service remains normal at 11:30 case 516',academic,11,46,69,3,Network
'students report that several desks have loose or damaged fittings in basketball court the physical infrastructure needs attention while another campus service remains normal at 9:23 case 517',sports,9,38,55,2,Infrastructure
'please investigate because the campus network drops repeatedly during class in ts18 and several students are affected and several students are affected at 11:13 case 518',academic,11,53,51,4,Network
'staff were informed that the writing surface is damaged and difficult to use in group study the physical infrastructure needs attention and staff assistance has been requested at 11:10 case 520',library,11,71,47,2,Infrastructure
'during the latest session the classroom door cannot close safely in h4 corridor 1 the physical infrastructure needs attention although nearby rooms remain usable at 17:44 case 521',hostel,17,69,45,3,Infrastructure
'staff were informed that online resources time out during the session in h5 common room while the area is moderately occupied although nearby rooms remain usable at 11:26 case 522',hostel,11,73,72,2,Network
'today we noticed that the corridor has a persistent hygiene problem in group study without any warning notice during a regular teaching period at 16:04 case 523',library,16,43,40,3,Cleanliness
'today we noticed that the refill indicator has remained empty in washroom 1 the water service needs attention and the condition has become more frequent at 14:13 case 524',utility,14,69,82,4,Water
'please investigate because the drinking-water dispenser is empty in g3 the water service needs attention and several students are affected at 14:54 case 525',academic,14,68,38,3,Water
'for the second time this week the lecture-room screen does not lower correctly in h5 corridor 2 and several students are affected without any warning notice at 17:37 case 526',hostel,17,50,61,3,Infrastructure
'staff were informed that the writing surface is damaged and difficult to use in food court the physical infrastructure needs attention and the condition has become more frequent at 10:17 case 527',food,10,61,51,3,Infrastructure
'students report that only one billing counter is open during the rush in cl15-b the food service operation is affected while another campus service remains normal at 10:24 case 528',lab,10,99,84,1,Canteen
'for the second time this week the lecture-room screen does not lower correctly in g2 while another campus service remains normal and several students are affected at 13:31 case 529',academic,13,100,57,1,Infrastructure
'an urgent maintenance check is needed because video lectures buffer on the campus connection in h5 common room while another campus service remains normal and the condition has become more frequent at 13:07 case 531',hostel,13,74,61,2,Network
'today we noticed that the corridor has a persistent hygiene problem in reading hall this is a hygiene and cleanliness concern and it interrupts scheduled teaching at 14:02 case 532',library,14,37,54,2,Cleanliness
'for the second time this week water is collecting beneath the dispenser in reading hall the water service needs attention while the area is moderately occupied at 13:44 case 533',library,13,73,31,4,Water
'please investigate because the service queue is moving very slowly in reception without any warning notice while another campus service remains normal at 8:03 case 534',office,8,26,89,2,Canteen
'an urgent maintenance check is needed because signage for the room is missing in g3 the physical infrastructure needs attention without any warning notice at 13:22 case 535',academic,13,68,57,5,Infrastructure
'for the second time this week the lecture-room screen does not lower correctly in ts12 the physical infrastructure needs attention and the condition has become more frequent at 14:23 case 536',academic,14,57,48,4,Infrastructure
'today we noticed that ceiling plaster appears loose near the entrance in digital area after normal troubleshooting was attempted while the area is moderately occupied at 18:10 case 537',library,18,73,62,2,Infrastructure
'today we noticed that multiple computers show storage errors in h4 corridor 1 and several students are affected near the main entrance to the space at 17:04 case 538',hostel,17,73,66,3,Lab_Equipment
'for the second time this week the lecture-room screen does not lower correctly in ff6 while another campus service remains normal near the main entrance to the space at 11:44 case 539',academic,11,90,87,1,Infrastructure
'an urgent maintenance check is needed because the lab printer is unavailable to student systems in g3 laboratory equipment availability is affected after normal troubleshooting was attempted at 18:10 case 540',academic,18,52,44,1,Lab_Equipment
'staff were informed that dust and litter remain around the workstations in cooler b this is a hygiene and cleanliness concern while the area is moderately occupied at 9:29 case 541',utility,9,43,70,3,Cleanliness
'a repeated observation is that the wash area needs urgent sanitation in billing counter while the area is moderately occupied while another campus service remains normal at 18:27 case 542',food,18,65,55,3,Cleanliness
'students report that the wifi signal is unstable for several devices in g3 near the main entrance to the space near the main entrance to the space at 9:31 case 543',academic,9,76,56,4,Network
'please investigate because the campus network drops repeatedly during class in cr425 the network service is affected and the condition has become more frequent at 17:25 case 544',academic,17,78,80,2,Network
'for the second time this week order processing has stopped at one counter in washroom 1 the food service operation is affected while another campus service remains normal at 14:13 case 545',utility,14,44,70,2,Canteen
'please investigate because the ceiling fans are not operating in group study without any warning notice and the issue lasts more than ten minutes at 15:33 case 546',library,15,84,77,1,Electrical
'please investigate because the service queue is moving very slowly in washroom g and the issue lasts more than ten minutes and staff assistance has been requested at 15:15 case 548',utility,15,76,65,3,Canteen
'during the latest session the classroom door cannot close safely in cl1-b the physical infrastructure needs attention and it interrupts scheduled teaching at 10:11 case 549',lab,10,52,57,3,Infrastructure
'students report that water is leaking into the walking area in cl1-b the water service needs attention while the area is moderately occupied at 12:57 case 550',lab,12,81,56,2,Water
'please investigate because the campus network drops repeatedly during class in billing counter the network service is affected while the area is moderately occupied at 8:00 case 552',food,8,94,45,1,Network
'for the second time this week water is collecting beneath the dispenser in h5 common room the water service needs attention near the main entrance to the space at 16:03 case 555',hostel,16,40,43,5,Water
'during the latest session lights flicker repeatedly during use in academic office the electrical supply needs inspection while another campus service remains normal at 12:29 case 556',office,12,66,56,4,Electrical
'during the latest session students are waiting too long for food service in visitor parking and the condition has become more frequent and the issue lasts more than ten minutes at 10:09 case 558',outdoor,10,47,33,2,Canteen
'today we noticed that network coverage disappears near the back rows in backstage and the condition has become more frequent while the area is moderately occupied at 10:26 case 560',common,10,67,58,2,Network
'today we noticed that the notice board contains outdated information in cl3-a campus operations are being disrupted near the main entrance to the space at 13:43 case 561',lab,13,70,83,2,Other
'a repeated observation is that internet speed falls below a usable level in visitor parking without any warning notice near the main entrance to the space at 11:34 case 564',outdoor,11,49,66,5,Network
'during the latest session the workstation cannot boot for the practical in ts18 and it interrupts scheduled teaching and the condition has become more frequent at 10:55 case 565',academic,10,38,68,3,Lab_Equipment
'today we noticed that charging points are unavailable in cr101 without any warning notice and the issue lasts more than ten minutes at 11:40 case 566',academic,11,76,81,2,Electrical
'an urgent maintenance check is needed because a switchboard becomes warm during operation in basketball court the electrical supply needs inspection and the issue lasts more than ten minutes at 18:56 case 567',sports,18,36,49,3,Network
'today we noticed that charging points are unavailable in cs2 and the condition has become more frequent during a regular teaching period at 17:16 case 569',academic,17,26,39,3,Electrical
'staff were informed that the experiment console does not record readings in digital area laboratory equipment availability is affected while the area is moderately occupied at 8:16 case 570',library,8,45,51,1,Lab_Equipment
'students report that the air conditioner stops cooling after midday in cl3-b although nearby rooms remain usable after normal troubleshooting was attempted at 15:43 case 571',lab,15,61,39,4,Electrical
'a repeated observation is that the display cable and wall port need repair in ff6 the physical infrastructure needs attention without any warning notice at 11:23 case 572',academic,11,81,53,1,Infrastructure
'an urgent maintenance check is needed because signage for the room is missing in cr201 the physical infrastructure needs attention during a regular teaching period at 11:44 case 573',academic,11,90,41,3,Infrastructure
'today we noticed that charging points are unavailable in digital area the electrical supply needs inspection and several students are affected at 18:21 case 574',library,18,29,72,4,Electrical
'staff were informed that the writing surface is damaged and difficult to use in reading hall the physical infrastructure needs attention near the main entrance to the space at 16:31 case 576',library,16,66,50,4,Infrastructure
'for the second time this week the wired connection cannot reach institute services in cr101 and staff assistance has been requested and several students are affected at 17:31 case 578',academic,17,48,41,4,Network
'during the latest session a spill has made the floor slippery in h5 common room and several students are affected without any warning notice at 13:57 case 579',hostel,13,52,72,2,Cleanliness
'during the latest session a spill has made the floor slippery in ts18 and the issue lasts more than ten minutes while another campus service remains normal at 8:18 case 580',academic,8,45,75,3,Cleanliness
'today we noticed that the notice board contains outdated information in security post while another campus service remains normal after normal troubleshooting was attempted at 15:49 case 581',outdoor,15,41,71,3,Other
'a repeated observation is that laboratory equipment reports a calibration error in h5 corridor 2 and it interrupts scheduled teaching after normal troubleshooting was attempted at 14:06 case 583',hostel,14,50,35,2,Lab_Equipment
'students report that the wifi signal is unstable for several devices in g5 although nearby rooms remain usable after normal troubleshooting was attempted at 15:43 case 586',academic,15,77,40,3,Water
'today we noticed that multiple computers show storage errors in washroom g near the main entrance to the space during a regular teaching period at 17:42 case 587',utility,17,82,42,3,Lab_Equipment
'a repeated observation is that the display cable and wall port need repair in main hall without any warning notice and it interrupts scheduled teaching at 17:28 case 588',common,17,59,51,4,Canteen
'students report that only one billing counter is open during the rush in cs1 the food service operation is affected while another campus service remains normal at 11:30 case 589',academic,11,98,52,3,Canteen
'please investigate because the projector loses its input after a few minutes in h4 corridor 1 and it interrupts scheduled teaching without any warning notice at 8:47 case 592',hostel,8,66,46,4,Infrastructure
'students report that several desks have loose or damaged fittings in cl3-b the physical infrastructure needs attention after normal troubleshooting was attempted at 14:42 case 593',lab,14,75,56,2,Infrastructure
'an urgent maintenance check is needed because video lectures buffer on the campus connection in food court the network service is affected and it interrupts scheduled teaching at 9:29 case 594',food,9,59,52,2,Network
'staff were informed that the experiment console does not record readings in cr201 laboratory equipment availability is affected during a regular teaching period at 9:23 case 595',academic,9,36,60,2,Lab_Equipment
'for the second time this week order processing has stopped at one counter in basketball court the food service operation is affected while the area is moderately occupied at 12:11 case 596',sports,12,71,54,2,Canteen
'please investigate because the ceiling fans are not operating in group study without any warning notice and the condition has become more frequent at 8:50 case 597',library,8,37,76,4,Electrical
'please investigate because the drinking-water dispenser is empty in group study the water service needs attention although nearby rooms remain usable at 17:15 case 599',library,17,48,65,4,Water
'students report that the wifi signal is unstable for several devices in washroom 1 without any warning notice and it interrupts scheduled teaching at 11:54 case 602',utility,11,53,58,4,Network
'please investigate because the campus network drops repeatedly during class in food court the network service is affected although nearby rooms remain usable at 15:42 case 603',food,15,51,44,4,Network
'students report that the wifi signal is unstable for several devices in cr102 while the area is moderately occupied and the issue lasts more than ten minutes at 17:01 case 604',academic,17,58,62,2,Network
'during the latest session students cannot authenticate to the wireless network in ts12 the network service is affected near the main entrance to the space at 15:32 case 606',academic,15,45,48,4,Network
'a repeated observation is that a campus service is unavailable without an explanation in ece-202 and the issue lasts more than ten minutes while the area is moderately occupied at 15:40 case 607',lab,15,70,57,1,Other
'an urgent maintenance check is needed because standing water is creating an unhygienic patch in cs2 this is a hygiene and cleanliness concern after normal troubleshooting was attempted at 14:56 case 610',academic,14,84,66,2,Cleanliness
'during the latest session a spill has made the floor slippery in academic office this is a hygiene and cleanliness concern during a regular teaching period at 10:02 case 611',office,10,65,51,2,Cleanliness
'today we noticed that ceiling plaster appears loose near the entrance in cr201 the physical infrastructure needs attention and it interrupts scheduled teaching at 9:51 case 612',academic,9,56,30,2,Infrastructure
'a repeated observation is that a power socket is loose and unsafe in h4 corridor 2 the electrical supply needs inspection and it interrupts scheduled teaching at 15:22 case 613',hostel,15,72,60,5,Electrical
'for the second time this week the device driver is missing from the workstation in cl22-a and the condition has become more frequent and staff assistance has been requested at 9:57 case 614',lab,9,51,35,2,Lab_Equipment
'staff were informed that billing and collection lines are merging into one queue in cr102 while the area is moderately occupied and several students are affected at 13:37 case 615',academic,13,58,46,3,Canteen
'during the latest session students are waiting too long for food service in academic office and it interrupts scheduled teaching after normal troubleshooting was attempted at 13:51 case 616',office,13,100,64,5,Canteen
'an urgent maintenance check is needed because standing water is creating an unhygienic patch in visitor parking and the condition has become more frequent and several students are affected at 13:28 case 618',outdoor,13,57,57,1,Cleanliness
'a repeated observation is that the queue extends into the walking area in g1 after normal troubleshooting was attempted and it interrupts scheduled teaching at 8:03 case 620',academic,8,100,67,5,Canteen
'during the latest session students are waiting too long for food service in group study the food service operation is affected during a regular teaching period at 14:54 case 621',library,14,41,57,4,Canteen
'an urgent maintenance check is needed because video lectures buffer on the campus connection in counter a and the condition has become more frequent while another campus service remains normal at 15:28 case 624',food,15,52,51,1,Network
'during the latest session students are waiting too long for food service in cl1-b the food service operation is affected and staff assistance has been requested at 10:10 case 626',lab,10,62,43,5,Canteen
'an urgent maintenance check is needed because a switchboard becomes warm during operation in reception near the main entrance to the space and it interrupts scheduled teaching at 14:04 case 627',office,14,100,64,5,Electrical
'a repeated observation is that the queue extends into the walking area in ts11 the food service operation is affected and the issue lasts more than ten minutes at 11:27 case 628',academic,11,68,78,1,Canteen
'please investigate because the drinking-water dispenser is empty in gh common room the water service needs attention after normal troubleshooting was attempted at 18:44 case 629',hostel,18,29,86,2,Water
'please investigate because parking congestion is blocking access in ts18 campus operations are being disrupted while another campus service remains normal at 18:56 case 630',academic,18,78,80,2,Other
'students report that water is leaking into the walking area in cl15-a and the condition has become more frequent without any warning notice at 10:20 case 632',lab,10,40,65,4,Water
'an urgent maintenance check is needed because the filtration unit shows a service warning in cl15-b and it interrupts scheduled teaching and the issue lasts more than ten minutes at 10:17 case 633',lab,10,53,35,2,Infrastructure
'today we noticed that seating capacity is insufficient during the meal break in h5 corridor 2 although nearby rooms remain usable and it interrupts scheduled teaching at 14:22 case 635',hostel,14,49,50,5,Canteen
'an urgent maintenance check is needed because the lab printer is unavailable to student systems in g2 and it interrupts scheduled teaching and the issue lasts more than ten minutes at 12:55 case 636',academic,12,40,70,1,Lab_Equipment
'today we noticed that seating capacity is insufficient during the meal break in washroom 1 and several students are affected although nearby rooms remain usable at 12:07 case 637',utility,12,61,68,3,Canteen
'staff were informed that the writing surface is damaged and difficult to use in g2 during a regular teaching period after normal troubleshooting was attempted at 12:40 case 638',academic,12,66,40,3,Infrastructure
'please investigate because the campus network drops repeatedly during class in cl22-a and the condition has become more frequent without any warning notice at 18:26 case 639',lab,18,88,54,4,Network
'during the latest session students are waiting too long for food service in gate 1 the food service operation is affected although nearby rooms remain usable at 18:14 case 641',outdoor,18,69,66,2,Canteen
'staff were informed that the experiment console does not record readings in gh common room and staff assistance has been requested and it interrupts scheduled teaching at 11:39 case 642',hostel,11,88,49,3,Lab_Equipment
'please investigate because the drinking-water dispenser is empty in ts18 the water service needs attention and the issue lasts more than ten minutes at 16:12 case 643',academic,16,35,73,2,Water
'for the second time this week the lecture-room screen does not lower correctly in digital area the physical infrastructure needs attention while the area is moderately occupied at 14:45 case 644',library,14,100,51,1,Infrastructure
'for the second time this week the wired connection cannot reach institute services in washroom 1 the network service is affected without any warning notice at 12:06 case 645',utility,12,73,60,2,Network
'a repeated observation is that laboratory equipment reports a calibration error in visitor parking and it interrupts scheduled teaching and the condition has become more frequent at 10:38 case 647',outdoor,10,92,53,5,Lab_Equipment
'a repeated observation is that the nearest water point is not operational in cooler a and the condition has become more frequent and the issue lasts more than ten minutes at 12:26 case 648',utility,12,90,56,2,Water
'today we noticed that multiple computers show storage errors in cr202 laboratory equipment availability is affected near the main entrance to the space at 17:01 case 649',academic,17,36,66,4,Lab_Equipment
'during the latest session students cannot authenticate to the wireless network in g2 while another campus service remains normal during a regular teaching period at 17:38 case 650',academic,17,75,54,2,Network
'a repeated observation is that the queue extends into the walking area in dining hall the food service operation is affected although nearby rooms remain usable at 8:39 case 651',food,8,73,79,2,Canteen
'please investigate because the drinking-water dispenser is empty in group study the water service needs attention during a regular teaching period at 8:38 case 652',library,8,80,57,5,Water
'students report that the wifi signal is unstable for several devices in cl1-a the network service is affected while another campus service remains normal at 16:00 case 653',lab,16,63,79,3,Network
'during the latest session the common area is overcrowded in gh common room campus operations are being disrupted and the condition has become more frequent at 17:44 case 654',hostel,17,92,65,2,Other
'for the second time this week water is collecting beneath the dispenser in basketball court and it interrupts scheduled teaching after normal troubleshooting was attempted at 14:08 case 655',sports,14,61,63,3,Water
'for the second time this week the lecture-room screen does not lower correctly in g5 the physical infrastructure needs attention after normal troubleshooting was attempted at 8:27 case 656',academic,8,78,93,1,Infrastructure
'an urgent maintenance check is needed because signage for the room is missing in indoor court near the main entrance to the space during a regular teaching period at 18:24 case 657',sports,18,88,81,2,Infrastructure
'students report that the air conditioner stops cooling after midday in gh corridor 1 without any warning notice and it interrupts scheduled teaching at 18:19 case 660',hostel,18,62,58,1,Electrical
'today we noticed that seating capacity is insufficient during the meal break in food court the food service operation is affected and it interrupts scheduled teaching at 13:23 case 662',food,13,92,20,4,Canteen
'please investigate because several systems freeze during compilation in h4 corridor 2 although nearby rooms remain usable and several students are affected at 8:03 case 663',hostel,8,51,69,1,Lab_Equipment
'an urgent maintenance check is needed because video lectures buffer on the campus connection in food court the network service is affected without any warning notice at 13:07 case 664',food,13,73,60,3,Network
'during the latest session the workstation cannot boot for the practical in cl15-a laboratory equipment availability is affected and the condition has become more frequent at 10:23 case 665',lab,10,77,38,4,Lab_Equipment
'an urgent maintenance check is needed because standing water is creating an unhygienic patch in group study this is a hygiene and cleanliness concern while the area is moderately occupied at 14:55 case 666',library,14,71,37,5,Cleanliness
'today we noticed that ceiling plaster appears loose near the entrance in indoor court the physical infrastructure needs attention and the issue lasts more than ten minutes at 14:00 case 667',sports,14,76,86,3,Infrastructure
'please investigate because the area has not been cleaned since the morning in h5 corridor 1 this is a hygiene and cleanliness concern and several students are affected at 18:23 case 668',hostel,18,76,41,2,Network
'staff were informed that billing and collection lines are merging into one queue in cs2 the food service operation is affected without any warning notice at 14:36 case 669',academic,14,99,35,2,Canteen
'during the latest session water pressure is too low for normal use in g2 while another campus service remains normal and the condition has become more frequent at 8:26 case 670',academic,8,52,70,2,Water
'during the latest session the workstation cannot boot for the practical in cs1 laboratory equipment availability is affected after normal troubleshooting was attempted at 15:44 case 671',academic,15,2,49,2,Lab_Equipment
'during the latest session students are waiting too long for food service in h4 corridor 2 after normal troubleshooting was attempted and staff assistance has been requested at 12:45 case 672',hostel,12,89,56,3,Canteen
'staff were informed that online resources time out during the session in cl22-b near the main entrance to the space although nearby rooms remain usable at 12:11 case 673',lab,12,49,55,3,Network
'for the second time this week the lecture-room screen does not lower correctly in h5 corridor 1 the physical infrastructure needs attention after normal troubleshooting was attempted at 18:18 case 676',hostel,18,51,73,2,Infrastructure
'for the second time this week water is collecting beneath the dispenser in ts17 the water service needs attention near the main entrance to the space at 11:56 case 677',academic,11,1,37,4,Water
'an urgent maintenance check is needed because video lectures buffer on the campus connection in visitor parking after normal troubleshooting was attempted although nearby rooms remain usable at 11:27 case 678',outdoor,11,100,48,2,Network
'an urgent maintenance check is needed because a switchboard becomes warm during operation in cr101 the electrical supply needs inspection and staff assistance has been requested at 16:39 case 679',academic,16,43,68,4,Electrical
'during the latest session water pressure is too low for normal use in ts17 although nearby rooms remain usable and several students are affected at 17:22 case 680',academic,17,38,44,2,Water
'during the latest session the workstation cannot boot for the practical in h4 common room after normal troubleshooting was attempted during a regular teaching period at 8:05 case 681',hostel,8,39,93,3,Lab_Equipment
'students report that only one billing counter is open during the rush in visitor parking and staff assistance has been requested while the area is moderately occupied at 12:34 case 682',outdoor,12,57,57,3,Canteen
'today we noticed that multiple computers show storage errors in ece-202 laboratory equipment availability is affected without any warning notice at 8:23 case 683',lab,8,75,73,4,Lab_Equipment
'today we noticed that ceiling plaster appears loose near the entrance in main hall the physical infrastructure needs attention and the condition has become more frequent at 9:46 case 684',common,9,68,59,2,Infrastructure
'during the latest session students cannot authenticate to the wireless network in cl3-b and it interrupts scheduled teaching and staff assistance has been requested at 15:31 case 685',lab,15,43,61,4,Network
'students report that a monitor and keyboard are not detected in digital area near the main entrance to the space during a regular teaching period at 15:03 case 686',library,15,28,55,2,Lab_Equipment
'please investigate because the campus network drops repeatedly during class in h4 common room the network service is affected after normal troubleshooting was attempted at 12:40 case 687',hostel,12,47,64,2,Electrical
'students report that the air conditioner stops cooling after midday in cr425 the electrical supply needs inspection while another campus service remains normal at 17:41 case 688',academic,17,30,51,3,Electrical
'during the latest session students cannot authenticate to the wireless network in ece-202 while another campus service remains normal and it interrupts scheduled teaching at 16:22 case 690',lab,16,82,58,3,Network
'a repeated observation is that the nearest water point is not operational in cr202 the water service needs attention and staff assistance has been requested at 15:01 case 691',academic,15,33,46,1,Water
'for the second time this week the wired connection cannot reach institute services in gym while another campus service remains normal while another campus service remains normal at 18:06 case 692',sports,18,80,51,2,Network
'an urgent maintenance check is needed because pedestrian movement is restricted by stored material in cr101 while the area is moderately occupied although nearby rooms remain usable at 9:46 case 693',academic,9,44,67,1,Other
'a repeated observation is that a campus service is unavailable without an explanation in ts17 and it interrupts scheduled teaching and staff assistance has been requested at 14:28 case 694',academic,14,66,35,3,Other
'a repeated observation is that the queue extends into the walking area in academic office during a regular teaching period and the issue lasts more than ten minutes at 16:08 case 695',office,16,98,79,2,Canteen
'an urgent maintenance check is needed because the lab printer is unavailable to student systems in ts17 and the condition has become more frequent after normal troubleshooting was attempted at 11:46 case 696',academic,11,78,76,2,Lab_Equipment
'today we noticed that the refill indicator has remained empty in cl3-a near the main entrance to the space during a regular teaching period at 18:23 case 697',lab,18,50,28,2,Water
'a repeated observation is that internet speed falls below a usable level in group study the network service is affected and the issue lasts more than ten minutes at 10:26 case 698',library,10,42,43,1,Network
'today we noticed that seating capacity is insufficient during the meal break in cl3-b although nearby rooms remain usable although nearby rooms remain usable at 13:14 case 699',lab,13,75,35,2,Canteen
'staff were informed that a tap continues running after it is closed in gh common room although nearby rooms remain usable although nearby rooms remain usable at 16:51 case 700',hostel,16,54,63,4,Water
'a repeated observation is that a campus service is unavailable without an explanation in gate 1 campus operations are being disrupted and several students are affected at 11:06 case 701',outdoor,11,90,51,4,Other
'today we noticed that seating capacity is insufficient during the meal break in indoor court and it interrupts scheduled teaching after normal troubleshooting was attempted at 13:04 case 702',sports,13,93,53,1,Canteen
'a repeated observation is that laboratory equipment reports a calibration error in washroom 1 while another campus service remains normal while the area is moderately occupied at 16:20 case 703',utility,16,17,63,2,Lab_Equipment
'an urgent maintenance check is needed because pedestrian movement is restricted by stored material in basketball court while another campus service remains normal and the condition has become more frequent at 15:12 case 704',sports,15,67,55,4,Other
'students report that a monitor and keyboard are not detected in cl22-a and staff assistance has been requested and staff assistance has been requested at 8:10 case 705',lab,8,32,42,2,Lab_Equipment
'for the second time this week the cleaning schedule appears to have been missed in indoor court while the area is moderately occupied and it interrupts scheduled teaching at 10:46 case 706',sports,10,69,95,4,Cleanliness
'during the latest session the workstation cannot boot for the practical in ts17 after normal troubleshooting was attempted and several students are affected at 10:43 case 708',academic,10,52,77,5,Lab_Equipment
'an urgent maintenance check is needed because standing water is creating an unhygienic patch in backstage this is a hygiene and cleanliness concern and it interrupts scheduled teaching at 17:54 case 709',common,17,62,68,3,Cleanliness
'please investigate because the drinking-water dispenser is empty in washroom g during a regular teaching period and the issue lasts more than ten minutes at 18:00 case 711',utility,18,48,41,3,Water
'during the latest session students cannot authenticate to the wireless network in cl15-a the network service is affected and staff assistance has been requested at 12:21 case 712',lab,12,62,63,5,Network
'students report that several desks have loose or damaged fittings in cl22-a the physical infrastructure needs attention while the area is moderately occupied at 13:56 case 713',lab,13,87,65,3,Infrastructure
'today we noticed that the notice board contains outdated information in billing counter during a regular teaching period and the condition has become more frequent at 12:49 case 714',food,12,62,64,2,Other
'a repeated observation is that the wash area needs urgent sanitation in cl1-b and staff assistance has been requested while another campus service remains normal at 14:19 case 715',lab,14,71,84,2,Cleanliness
'please investigate because several systems freeze during compilation in cooler a without any warning notice after normal troubleshooting was attempted at 16:32 case 716',utility,16,40,50,2,Lab_Equipment
'for the second time this week the lecture-room screen does not lower correctly in ts11 the physical infrastructure needs attention after normal troubleshooting was attempted at 14:52 case 717',academic,14,68,52,2,Infrastructure
'a repeated observation is that a power socket is loose and unsafe in h5 corridor 2 the electrical supply needs inspection and staff assistance has been requested at 13:36 case 718',hostel,13,77,61,4,Electrical
'an urgent maintenance check is needed because the filtration unit shows a service warning in group study the water service needs attention and the issue lasts more than ten minutes at 14:12 case 719',library,14,83,84,3,Water
'today we noticed that ceiling plaster appears loose near the entrance in cs2 the physical infrastructure needs attention and staff assistance has been requested at 9:00 case 720',academic,9,45,48,3,Infrastructure
'during the latest session students cannot authenticate to the wireless network in cr425 after normal troubleshooting was attempted and it interrupts scheduled teaching at 8:06 case 722',academic,8,20,85,2,Infrastructure
'a repeated observation is that the queue extends into the walking area in cl3-b the food service operation is affected without any warning notice at 10:11 case 723',lab,10,62,66,1,Canteen
'a repeated observation is that internet speed falls below a usable level in food court the network service is affected and it interrupts scheduled teaching at 8:42 case 724',food,8,33,41,1,Network
'during the latest session water pressure is too low for normal use in indoor court while another campus service remains normal near the main entrance to the space at 11:04 case 726',sports,11,68,90,2,Water
'today we noticed that network coverage disappears near the back rows in reception the network service is affected near the main entrance to the space at 9:07 case 727',office,9,58,63,5,Water
'students report that several desks have loose or damaged fittings in h5 corridor 2 and it interrupts scheduled teaching while the area is moderately occupied at 9:35 case 728',hostel,9,86,59,3,Infrastructure
'please investigate because parking congestion is blocking access in cl1-a while the area is moderately occupied and staff assistance has been requested at 12:25 case 730',lab,12,66,89,2,Other
'staff were informed that billing and collection lines are merging into one queue in cl22-b without any warning notice while another campus service remains normal at 10:46 case 731',lab,10,68,60,2,Canteen
'for the second time this week water is collecting beneath the dispenser in g5 the water service needs attention while the area is moderately occupied at 15:42 case 732',academic,15,64,51,2,Water
'today we noticed that the notice board contains outdated information in g6 after normal troubleshooting was attempted after normal troubleshooting was attempted at 18:27 case 733',academic,18,84,40,1,Other
'today we noticed that the refill indicator has remained empty in gym the water service needs attention while the area is moderately occupied at 8:12 case 735',sports,8,67,44,2,Water
'an urgent maintenance check is needed because the filtration unit shows a service warning in indoor court the water service needs attention and staff assistance has been requested at 11:34 case 736',sports,11,68,62,4,Water
'students report that the air conditioner stops cooling after midday in cl1-a and the condition has become more frequent while the area is moderately occupied at 13:36 case 737',lab,13,57,71,4,Electrical
'students report that a monitor and keyboard are not detected in cl22-a laboratory equipment availability is affected although nearby rooms remain usable at 17:06 case 739',lab,17,62,59,5,Lab_Equipment
'students report that the air conditioner stops cooling after midday in cl3-a the electrical supply needs inspection and the issue lasts more than ten minutes at 13:35 case 740',lab,13,71,74,5,Electrical
'a repeated observation is that a power socket is loose and unsafe in cl15-b while the area is moderately occupied while the area is moderately occupied at 14:29 case 741',lab,14,61,86,2,Electrical
'students report that only one billing counter is open during the rush in cl1-a after normal troubleshooting was attempted while the area is moderately occupied at 8:59 case 742',lab,8,43,49,1,Canteen
'a repeated observation is that the display cable and wall port need repair in gh common room the physical infrastructure needs attention and staff assistance has been requested at 13:57 case 745',hostel,13,68,56,2,Infrastructure
'please investigate because the drinking-water dispenser is empty in indoor court although nearby rooms remain usable during a regular teaching period at 12:11 case 746',sports,12,81,56,2,Water
'today we noticed that the corridor has a persistent hygiene problem in cooler a this is a hygiene and cleanliness concern after normal troubleshooting was attempted at 8:37 case 747',utility,8,74,47,2,Cleanliness
'a repeated observation is that a power socket is loose and unsafe in g3 and the issue lasts more than ten minutes and the issue lasts more than ten minutes at 12:26 case 749',academic,12,90,56,3,Electrical
'today we noticed that the notice board contains outdated information in main hall during a regular teaching period while the area is moderately occupied at 17:47 case 750',common,17,70,71,2,Other
'please investigate because several systems freeze during compilation in visitor parking laboratory equipment availability is affected after normal troubleshooting was attempted at 12:56 case 751',outdoor,12,92,49,4,Lab_Equipment
'please investigate because the drinking-water dispenser is empty in h4 corridor 1 the water service needs attention although nearby rooms remain usable at 11:07 case 752',hostel,11,75,58,5,Water
'an urgent maintenance check is needed because signage for the room is missing in cr425 and several students are affected after normal troubleshooting was attempted at 8:32 case 753',academic,8,42,40,2,Infrastructure
'for the second time this week the lecture-room screen does not lower correctly in gym although nearby rooms remain usable and the condition has become more frequent at 12:18 case 757',sports,12,70,40,3,Infrastructure
'for the second time this week the ventilation fan does not start in h5 corridor 1 the electrical supply needs inspection after normal troubleshooting was attempted at 11:50 case 758',hostel,11,5,23,1,Electrical
'staff were informed that online resources time out during the session in counter a the network service is affected and the condition has become more frequent at 11:18 case 759',food,11,8,61,3,Network
'during the latest session a spill has made the floor slippery in group study during a regular teaching period during a regular teaching period at 15:38 case 761',library,15,38,52,3,Cleanliness
'for the second time this week order processing has stopped at one counter in gate 1 and the issue lasts more than ten minutes during a regular teaching period at 13:25 case 762',outdoor,13,94,58,2,Canteen
'students report that waste bins are overflowing into the corridor in counter a this is a hygiene and cleanliness concern although nearby rooms remain usable at 11:31 case 763',food,11,73,58,3,Cleanliness
'please investigate because the ceiling fans are not operating in washroom g the electrical supply needs inspection without any warning notice at 12:12 case 764',utility,12,83,42,2,Electrical
'during the latest session the workstation cannot boot for the practical in h4 corridor 1 while another campus service remains normal after normal troubleshooting was attempted at 17:44 case 765',hostel,17,48,61,3,Lab_Equipment
'students report that several desks have loose or damaged fittings in g1 the physical infrastructure needs attention after normal troubleshooting was attempted at 15:25 case 766',academic,15,34,67,2,Infrastructure
'today we noticed that ceiling plaster appears loose near the entrance in digital area the physical infrastructure needs attention although nearby rooms remain usable at 16:05 case 767',library,16,59,42,3,Infrastructure
'a repeated observation is that the queue extends into the walking area in dining hall the food service operation is affected although nearby rooms remain usable at 16:29 case 768',food,16,51,47,3,Canteen
'for the second time this week order processing has stopped at one counter in cr201 the food service operation is affected and it interrupts scheduled teaching at 12:06 case 769',academic,12,74,75,2,Lab_Equipment
'an urgent maintenance check is needed because the filtration unit shows a service warning in gate 1 the water service needs attention and staff assistance has been requested at 9:11 case 770',outdoor,9,64,63,4,Water
'today we noticed that the notice board contains outdated information in student parking and the condition has become more frequent near the main entrance to the space at 9:39 case 771',outdoor,9,78,65,1,Other
'staff were informed that the experiment console does not record readings in ts11 and the condition has become more frequent while another campus service remains normal at 12:39 case 772',academic,12,94,29,5,Lab_Equipment
'during the latest session students are waiting too long for food service in cs2 and it interrupts scheduled teaching near the main entrance to the space at 10:20 case 773',academic,10,47,76,3,Canteen
'a repeated observation is that a campus service is unavailable without an explanation in h4 common room after normal troubleshooting was attempted while another campus service remains normal at 14:24 case 774',hostel,14,57,75,2,Other
'students report that several desks have loose or damaged fittings in group study the physical infrastructure needs attention near the main entrance to the space at 13:47 case 775',library,13,76,72,5,Infrastructure
'during the latest session the common area is overcrowded in ece-202 campus operations are being disrupted after normal troubleshooting was attempted at 8:18 case 776',lab,8,16,51,3,Electrical
'a repeated observation is that a power socket is loose and unsafe in cr202 the electrical supply needs inspection without any warning notice at 8:08 case 777',academic,8,49,48,3,Electrical
'please investigate because the drinking-water dispenser is empty in ece-201 the water service needs attention and staff assistance has been requested at 14:39 case 778',lab,14,60,57,1,Water
'an urgent maintenance check is needed because signage for the room is missing in reading hall and the condition has become more frequent and staff assistance has been requested at 18:44 case 779',library,18,53,66,4,Infrastructure
'a repeated observation is that the display cable and wall port need repair in cl1-a near the main entrance to the space while the area is moderately occupied at 14:39 case 780',lab,14,63,43,3,Infrastructure
'today we noticed that network coverage disappears near the back rows in cs1 while another campus service remains normal near the main entrance to the space at 13:54 case 782',academic,13,95,88,1,Network
'students report that water is leaking into the walking area in washroom g the water service needs attention while another campus service remains normal at 16:47 case 783',utility,16,87,27,1,Water
'an urgent maintenance check is needed because standing water is creating an unhygienic patch in cs1 during a regular teaching period and the condition has become more frequent at 14:57 case 784',academic,14,37,30,2,Cleanliness
'a repeated observation is that the display cable and wall port need repair in g5 the physical infrastructure needs attention near the main entrance to the space at 14:17 case 785',academic,14,100,85,4,Infrastructure
'today we noticed that multiple computers show storage errors in cl15-a and several students are affected after normal troubleshooting was attempted at 18:03 case 786',lab,18,86,41,2,Lab_Equipment
'during the latest session the classroom door cannot close safely in academic office the physical infrastructure needs attention near the main entrance to the space at 10:35 case 787',office,10,67,83,2,Infrastructure
'an urgent maintenance check is needed because pedestrian movement is restricted by stored material in ts18 during a regular teaching period while another campus service remains normal at 13:51 case 788',academic,13,77,46,4,Other
'staff were informed that an electrical panel is making an unusual sound in h4 corridor 1 and the condition has become more frequent after normal troubleshooting was attempted at 8:00 case 789',hostel,8,57,60,3,Electrical
'an urgent maintenance check is needed because the filtration unit shows a service warning in ts18 and the condition has become more frequent after normal troubleshooting was attempted at 16:40 case 791',academic,16,63,45,4,Water
'a repeated observation is that internet speed falls below a usable level in g6 after normal troubleshooting was attempted while the area is moderately occupied at 16:11 case 793',academic,16,91,62,1,Network
'during the latest session the workstation cannot boot for the practical in reading hall after normal troubleshooting was attempted after normal troubleshooting was attempted at 12:51 case 795',library,12,100,42,2,Lab_Equipment
'during the latest session the workstation cannot boot for the practical in ece-202 laboratory equipment availability is affected and the issue lasts more than ten minutes at 8:31 case 797',lab,8,68,42,4,Lab_Equipment
'an urgent maintenance check is needed because the filtration unit shows a service warning in group study the water service needs attention after normal troubleshooting was attempted at 15:26 case 798',library,15,38,48,4,Water
'staff were informed that an unattended item is obstructing the walkway in cr101 campus operations are being disrupted near the main entrance to the space at 15:12 case 799',academic,15,57,62,3,Other
'for the second time this week order processing has stopped at one counter in reception the food service operation is affected and it interrupts scheduled teaching at 8:38 case 801',office,8,46,39,3,Canteen
'during the latest session lights flicker repeatedly during use in billing counter the electrical supply needs inspection and the issue lasts more than ten minutes at 17:10 case 802',food,17,89,78,2,Electrical
'staff were informed that an unattended item is obstructing the walkway in billing counter campus operations are being disrupted and the condition has become more frequent at 15:53 case 803',food,15,67,46,3,Other
'staff were informed that billing and collection lines are merging into one queue in ts18 and the issue lasts more than ten minutes and it interrupts scheduled teaching at 12:05 case 804',academic,12,78,71,2,Canteen
'today we noticed that multiple computers show storage errors in ece-201 while the area is moderately occupied and the condition has become more frequent at 9:07 case 805',lab,9,62,60,2,Lab_Equipment
'students report that the air conditioner stops cooling after midday in cs2 the electrical supply needs inspection without any warning notice at 14:05 case 807',academic,14,46,71,4,Electrical
'an urgent maintenance check is needed because the lab printer is unavailable to student systems in washroom g after normal troubleshooting was attempted while another campus service remains normal at 13:16 case 808',utility,13,58,72,5,Lab_Equipment
'please investigate because the service queue is moving very slowly in cs2 the food service operation is affected and it interrupts scheduled teaching at 9:18 case 809',academic,9,48,60,4,Canteen
'during the latest session the classroom door cannot close safely in ts18 the physical infrastructure needs attention while the area is moderately occupied at 14:18 case 810',academic,14,78,56,2,Infrastructure
'today we noticed that seating capacity is insufficient during the meal break in cl15-a the food service operation is affected while the area is moderately occupied at 17:48 case 811',lab,17,36,67,2,Canteen
'students report that a monitor and keyboard are not detected in cl1-a laboratory equipment availability is affected near the main entrance to the space at 8:45 case 813',lab,8,47,58,1,Lab_Equipment
'staff were informed that the writing surface is damaged and difficult to use in ts12 the physical infrastructure needs attention and it interrupts scheduled teaching at 17:22 case 815',academic,17,56,46,4,Infrastructure
'a repeated observation is that internet speed falls below a usable level in cr101 although nearby rooms remain usable without any warning notice at 10:36 case 816',academic,10,65,53,2,Network
'staff were informed that the writing surface is damaged and difficult to use in gh corridor 1 the physical infrastructure needs attention without any warning notice at 17:23 case 817',hostel,17,74,51,2,Infrastructure
'during the latest session a spill has made the floor slippery in security post this is a hygiene and cleanliness concern near the main entrance to the space at 11:10 case 818',outdoor,11,100,68,3,Cleanliness
'an urgent maintenance check is needed because pedestrian movement is restricted by stored material in cr201 and it interrupts scheduled teaching while the area is moderately occupied at 8:30 case 819',academic,8,46,43,2,Other
'today we noticed that the refill indicator has remained empty in cl3-b and it interrupts scheduled teaching after normal troubleshooting was attempted at 17:22 case 820',lab,17,70,54,3,Water
'an urgent maintenance check is needed because the lab printer is unavailable to student systems in student parking laboratory equipment availability is affected and several students are affected at 11:17 case 821',outdoor,11,56,40,3,Lab_Equipment
'an urgent maintenance check is needed because standing water is creating an unhygienic patch in cl15-b this is a hygiene and cleanliness concern and it interrupts scheduled teaching at 11:44 case 822',lab,11,59,29,2,Cleanliness
'a repeated observation is that the wash area needs urgent sanitation in ece-201 while another campus service remains normal near the main entrance to the space at 13:03 case 823',lab,13,76,53,4,Cleanliness
'please investigate because the campus network drops repeatedly during class in main hall during a regular teaching period without any warning notice at 18:29 case 824',common,18,57,40,2,Network
'a repeated observation is that internet speed falls below a usable level in g5 without any warning notice and the issue lasts more than ten minutes at 10:05 case 825',academic,10,86,76,3,Other
'an urgent maintenance check is needed because the lab printer is unavailable to student systems in ts18 laboratory equipment availability is affected and several students are affected at 8:39 case 826',academic,8,59,56,5,Lab_Equipment
'during the latest session the classroom door cannot close safely in ff6 the physical infrastructure needs attention during a regular teaching period at 10:26 case 827',academic,10,71,89,2,Infrastructure
'students report that several desks have loose or damaged fittings in group study after normal troubleshooting was attempted without any warning notice at 15:31 case 828',library,15,45,70,3,Infrastructure
'a repeated observation is that a campus service is unavailable without an explanation in ts18 campus operations are being disrupted without any warning notice at 9:56 case 830',academic,9,63,66,1,Other
'an urgent maintenance check is needed because the filtration unit shows a service warning in visitor parking during a regular teaching period during a regular teaching period at 17:14 case 831',outdoor,17,62,73,2,Water
'staff were informed that billing and collection lines are merging into one queue in cooler a the food service operation is affected while the area is moderately occupied at 12:43 case 834',utility,12,95,78,2,Canteen
'staff were informed that a tap continues running after it is closed in cs2 and it interrupts scheduled teaching and several students are affected at 13:43 case 836',academic,13,67,27,2,Water
'during the latest session the workstation cannot boot for the practical in cr202 while the area is moderately occupied and it interrupts scheduled teaching at 8:50 case 837',academic,8,82,53,2,Lab_Equipment
'please investigate because the projector loses its input after a few minutes in billing counter the physical infrastructure needs attention while another campus service remains normal at 13:06 case 838',food,13,57,45,2,Infrastructure
'for the second time this week the wired connection cannot reach institute services in ts18 the network service is affected while another campus service remains normal at 13:36 case 839',academic,13,59,44,4,Network
'for the second time this week the wired connection cannot reach institute services in cooler a the network service is affected while another campus service remains normal at 12:18 case 840',utility,12,73,84,3,Network
'today we noticed that ceiling plaster appears loose near the entrance in cl3-b and the issue lasts more than ten minutes near the main entrance to the space at 9:40 case 841',lab,9,38,51,4,Infrastructure
'for the second time this week order processing has stopped at one counter in digital area after normal troubleshooting was attempted and the condition has become more frequent at 10:31 case 842',library,10,73,60,3,Canteen
'please investigate because the service queue is moving very slowly in ts17 the food service operation is affected and several students are affected at 17:23 case 843',academic,17,44,55,3,Canteen
'an urgent maintenance check is needed because the filtration unit shows a service warning in g2 the water service needs attention while another campus service remains normal at 8:43 case 844',academic,8,37,64,4,Water
'students report that only one billing counter is open during the rush in cs2 the food service operation is affected although nearby rooms remain usable at 18:19 case 845',academic,18,62,41,2,Canteen
'a repeated observation is that the wash area needs urgent sanitation in backstage this is a hygiene and cleanliness concern without any warning notice at 12:42 case 846',common,12,65,64,5,Cleanliness
'for the second time this week order processing has stopped at one counter in main hall the food service operation is affected and staff assistance has been requested at 15:20 case 847',common,15,78,69,1,Canteen
'for the second time this week water is collecting beneath the dispenser in cr101 the water service needs attention without any warning notice at 17:18 case 849',academic,17,100,41,2,Water
'during the latest session students cannot authenticate to the wireless network in ts18 although nearby rooms remain usable without any warning notice at 16:14 case 851',academic,16,87,57,1,Network
'please investigate because several systems freeze during compilation in h4 corridor 1 laboratory equipment availability is affected and the condition has become more frequent at 8:47 case 852',hostel,8,82,50,4,Lab_Equipment
'a repeated observation is that a power socket is loose and unsafe in cl3-b and it interrupts scheduled teaching without any warning notice at 15:12 case 853',lab,15,45,46,2,Electrical
'during the latest session students cannot authenticate to the wireless network in h5 common room while another campus service remains normal near the main entrance to the space at 13:52 case 854',hostel,13,71,27,2,Network
'staff were informed that billing and collection lines are merging into one queue in cr202 during a regular teaching period and the condition has become more frequent at 12:29 case 855',academic,12,75,57,5,Canteen
'today we noticed that charging points are unavailable in cl3-a the electrical supply needs inspection during a regular teaching period at 15:38 case 856',lab,15,38,47,1,Cleanliness
'staff were informed that an unattended item is obstructing the walkway in counter a campus operations are being disrupted and the issue lasts more than ten minutes at 8:14 case 857',food,8,78,36,3,Other
'during the latest session the workstation cannot boot for the practical in ts18 and the condition has become more frequent near the main entrance to the space at 11:22 case 858',academic,11,82,67,4,Lab_Equipment
'a repeated observation is that the display cable and wall port need repair in cr101 and staff assistance has been requested and it interrupts scheduled teaching at 10:59 case 859',academic,10,47,39,1,Infrastructure
'a repeated observation is that the display cable and wall port need repair in cr102 while another campus service remains normal and the issue lasts more than ten minutes at 11:44 case 861',academic,11,90,72,4,Infrastructure
'for the second time this week the cleaning schedule appears to have been missed in main hall without any warning notice while the area is moderately occupied at 14:50 case 862',common,14,53,45,2,Cleanliness
'an urgent maintenance check is needed because the filtration unit shows a service warning in cooler a the water service needs attention without any warning notice at 17:34 case 863',utility,17,65,74,2,Water
'students report that the wifi signal is unstable for several devices in student parking the network service is affected while the area is moderately occupied at 10:32 case 864',outdoor,10,61,53,2,Network
'an urgent maintenance check is needed because video lectures buffer on the campus connection in h4 corridor 2 the network service is affected and staff assistance has been requested at 12:58 case 865',hostel,12,66,53,2,Network
'please investigate because the area has not been cleaned since the morning in h5 corridor 1 without any warning notice and the condition has become more frequent at 12:25 case 867',hostel,12,87,68,2,Cleanliness
'today we noticed that the notice board contains outdated information in cr101 and the issue lasts more than ten minutes and it interrupts scheduled teaching at 10:11 case 868',academic,10,56,44,3,Other
'please investigate because the projector loses its input after a few minutes in counter a and it interrupts scheduled teaching near the main entrance to the space at 8:01 case 869',food,8,33,48,5,Infrastructure
'an urgent maintenance check is needed because signage for the room is missing in g2 while the area is moderately occupied and staff assistance has been requested at 10:36 case 870',academic,10,59,58,5,Infrastructure
'for the second time this week the wired connection cannot reach institute services in h4 common room after normal troubleshooting was attempted without any warning notice at 11:07 case 871',hostel,11,54,72,3,Network
'a repeated observation is that laboratory equipment reports a calibration error in washroom g without any warning notice near the main entrance to the space at 15:24 case 873',utility,15,56,54,5,Lab_Equipment
'a repeated observation is that the nearest water point is not operational in g1 the water service needs attention after normal troubleshooting was attempted at 14:49 case 875',academic,14,95,53,3,Water
'for the second time this week the cleaning schedule appears to have been missed in ts18 and several students are affected and the condition has become more frequent at 8:50 case 877',academic,8,68,64,2,Cleanliness
'please investigate because the projector loses its input after a few minutes in ts18 although nearby rooms remain usable without any warning notice at 16:05 case 879',academic,16,63,46,2,Infrastructure
'for the second time this week the cleaning schedule appears to have been missed in washroom 1 and the issue lasts more than ten minutes and staff assistance has been requested at 10:05 case 880',utility,10,60,40,3,Cleanliness
'staff were informed that online resources time out during the session in h5 corridor 1 the network service is affected although nearby rooms remain usable at 9:30 case 881',hostel,9,60,45,2,Network
'during the latest session lights flicker repeatedly during use in ts12 while another campus service remains normal after normal troubleshooting was attempted at 13:43 case 882',academic,13,54,49,1,Electrical
'today we noticed that multiple computers show storage errors in h4 corridor 1 laboratory equipment availability is affected while another campus service remains normal at 13:51 case 883',hostel,13,94,60,4,Lab_Equipment
'today we noticed that charging points are unavailable in food court the electrical supply needs inspection without any warning notice at 8:48 case 886',food,8,49,54,2,Electrical
'for the second time this week water is collecting beneath the dispenser in reading hall without any warning notice near the main entrance to the space at 9:02 case 887',library,9,37,64,5,Water
'please investigate because parking congestion is blocking access in student parking although nearby rooms remain usable after normal troubleshooting was attempted at 13:06 case 888',outdoor,13,68,43,4,Other
'staff were informed that an electrical panel is making an unusual sound in ece-202 the electrical supply needs inspection and several students are affected at 9:15 case 890',lab,9,54,42,2,Electrical
'please investigate because the projector loses its input after a few minutes in cr202 the physical infrastructure needs attention and it interrupts scheduled teaching at 11:30 case 891',academic,11,79,58,5,Infrastructure
'students report that only one billing counter is open during the rush in ts18 the food service operation is affected and staff assistance has been requested at 13:40 case 892',academic,13,98,26,3,Canteen
'today we noticed that charging points are unavailable in washroom 1 although nearby rooms remain usable and it interrupts scheduled teaching at 9:20 case 893',utility,9,76,54,5,Electrical
'during the latest session students cannot authenticate to the wireless network in indoor court without any warning notice and several students are affected at 14:30 case 894',sports,14,47,71,4,Network
'a repeated observation is that the display cable and wall port need repair in cl22-a and the issue lasts more than ten minutes and several students are affected at 12:24 case 895',lab,12,88,64,5,Infrastructure
'a repeated observation is that internet speed falls below a usable level in digital area the network service is affected without any warning notice at 13:44 case 896',library,13,48,72,1,Network
'a repeated observation is that the queue extends into the walking area in digital area during a regular teaching period and staff assistance has been requested at 18:52 case 897',library,18,91,52,3,Canteen
'a repeated observation is that the wash area needs urgent sanitation in g6 without any warning notice and several students are affected at 13:24 case 898',academic,13,63,61,1,Cleanliness
'for the second time this week the ventilation fan does not start in gh corridor 1 the electrical supply needs inspection and it interrupts scheduled teaching at 16:39 case 899',hostel,16,52,34,3,Electrical
'today we noticed that multiple computers show storage errors in cl3-a laboratory equipment availability is affected after normal troubleshooting was attempted at 18:26 case 900',lab,18,55,44,5,Lab_Equipment
'an urgent maintenance check is needed because the lunch rush is blocking the entrance in h4 corridor 1 the food service operation is affected near the main entrance to the space at 14:54 case 901',hostel,14,67,32,1,Canteen
'students report that several desks have loose or damaged fittings in cl3-a without any warning notice without any warning notice at 16:32 case 902',lab,16,47,48,4,Infrastructure
'during the latest session lights flicker repeatedly during use in cooler b the electrical supply needs inspection and several students are affected at 18:36 case 904',utility,18,77,67,4,Electrical
'please investigate because parking congestion is blocking access in backstage campus operations are being disrupted and the issue lasts more than ten minutes at 18:44 case 905',common,18,40,76,5,Other
'during the latest session lights flicker repeatedly during use in cs1 the electrical supply needs inspection although nearby rooms remain usable at 18:38 case 906',academic,18,37,55,1,Electrical
'staff were informed that dust and litter remain around the workstations in digital area and the condition has become more frequent during a regular teaching period at 15:39 case 908',library,15,14,35,1,Cleanliness
'during the latest session lights flicker repeatedly during use in h4 corridor 2 the electrical supply needs inspection after normal troubleshooting was attempted at 15:35 case 909',hostel,15,72,46,4,Electrical
'an urgent maintenance check is needed because the lab printer is unavailable to student systems in reading hall laboratory equipment availability is affected although nearby rooms remain usable at 11:53 case 910',library,11,79,66,1,Lab_Equipment
'during the latest session students are waiting too long for food service in washroom 1 the food service operation is affected and staff assistance has been requested at 11:25 case 911',utility,11,86,30,3,Canteen
'during the latest session students cannot authenticate to the wireless network in student parking the network service is affected while the area is moderately occupied at 9:10 case 912',outdoor,9,66,33,2,Network
'students report that several desks have loose or damaged fittings in cr102 the physical infrastructure needs attention and it interrupts scheduled teaching at 9:41 case 913',academic,9,86,56,1,Infrastructure
'staff were informed that a tap continues running after it is closed in digital area and the issue lasts more than ten minutes and staff assistance has been requested at 10:51 case 914',library,10,48,95,3,Water
'for the second time this week order processing has stopped at one counter in counter a without any warning notice and the condition has become more frequent at 9:21 case 915',food,9,27,47,3,Canteen
'please investigate because the area has not been cleaned since the morning in gh corridor 1 and staff assistance has been requested and the issue lasts more than ten minutes at 15:00 case 917',hostel,15,75,42,4,Cleanliness
'students report that several desks have loose or damaged fittings in g3 the physical infrastructure needs attention and the condition has become more frequent at 9:18 case 918',academic,9,31,48,2,Infrastructure
'for the second time this week order processing has stopped at one counter in gate 1 during a regular teaching period and several students are affected at 11:47 case 920',outdoor,11,93,65,2,Canteen
'please investigate because several systems freeze during compilation in gh common room laboratory equipment availability is affected and staff assistance has been requested at 17:56 case 921',hostel,17,60,26,1,Lab_Equipment
'today we noticed that ceiling plaster appears loose near the entrance in cl1-a although nearby rooms remain usable near the main entrance to the space at 15:18 case 922',lab,15,54,56,2,Infrastructure
'students report that several desks have loose or damaged fittings in visitor parking the physical infrastructure needs attention and the issue lasts more than ten minutes at 13:22 case 923',outdoor,13,53,73,1,Infrastructure
'an urgent maintenance check is needed because pedestrian movement is restricted by stored material in student parking near the main entrance to the space during a regular teaching period at 17:30 case 924',outdoor,17,51,50,1,Other
'please investigate because several systems freeze during compilation in student parking laboratory equipment availability is affected without any warning notice at 8:09 case 925',outdoor,8,1,52,1,Lab_Equipment
'during the latest session students are waiting too long for food service in visitor parking the food service operation is affected and the issue lasts more than ten minutes at 13:49 case 926',outdoor,13,62,72,3,Canteen
'staff were informed that the experiment console does not record readings in indoor court laboratory equipment availability is affected and the issue lasts more than ten minutes at 9:31 case 927',sports,9,55,65,2,Lab_Equipment
'today we noticed that ceiling plaster appears loose near the entrance in backstage after normal troubleshooting was attempted without any warning notice at 13:23 case 928',common,13,52,56,3,Infrastructure
'students report that only one billing counter is open during the rush in g6 the food service operation is affected while the area is moderately occupied at 17:05 case 929',academic,17,61,45,4,Canteen
'staff were informed that an unattended item is obstructing the walkway in ts11 campus operations are being disrupted and the condition has become more frequent at 15:50 case 930',academic,15,49,41,3,Other
'staff were informed that the experiment console does not record readings in cl1-b after normal troubleshooting was attempted while the area is moderately occupied at 15:18 case 931',lab,15,68,43,2,Lab_Equipment
'during the latest session lights flicker repeatedly during use in ece-202 the electrical supply needs inspection and the condition has become more frequent at 12:54 case 935',lab,12,64,52,4,Electrical
'an urgent maintenance check is needed because the lunch rush is blocking the entrance in digital area and staff assistance has been requested while the area is moderately occupied at 14:27 case 936',library,14,62,51,2,Canteen
'students report that the air conditioner stops cooling after midday in washroom 1 after normal troubleshooting was attempted near the main entrance to the space at 9:23 case 937',utility,9,48,57,1,Electrical
'during the latest session water pressure is too low for normal use in basketball court the water service needs attention and the issue lasts more than ten minutes at 9:41 case 938',sports,9,50,40,2,Water
'during the latest session a spill has made the floor slippery in reception and staff assistance has been requested and the condition has become more frequent at 18:11 case 939',office,18,64,59,2,Cleanliness
'please investigate because several systems freeze during compilation in ts12 during a regular teaching period although nearby rooms remain usable at 9:17 case 940',academic,9,50,50,1,Lab_Equipment
'a repeated observation is that the queue extends into the walking area in billing counter and the condition has become more frequent without any warning notice at 13:03 case 942',food,13,56,68,2,Canteen
'please investigate because the campus network drops repeatedly during class in main hall the network service is affected while another campus service remains normal at 14:17 case 943',common,14,98,40,2,Network
'please investigate because the projector loses its input after a few minutes in h5 corridor 2 the physical infrastructure needs attention during a regular teaching period at 18:09 case 944',hostel,18,45,66,2,Infrastructure
'a repeated observation is that internet speed falls below a usable level in h4 corridor 1 the network service is affected and several students are affected at 15:04 case 947',hostel,15,78,37,4,Network
'an urgent maintenance check is needed because signage for the room is missing in gh common room and staff assistance has been requested although nearby rooms remain usable at 9:03 case 948',hostel,9,61,64,4,Lab_Equipment
'staff were informed that online resources time out during the session in h5 corridor 2 while another campus service remains normal and several students are affected at 10:08 case 949',hostel,10,85,45,4,Network
'today we noticed that ceiling plaster appears loose near the entrance in g2 and the condition has become more frequent and it interrupts scheduled teaching at 10:07 case 950',academic,10,66,48,4,Infrastructure
'during the latest session water pressure is too low for normal use in g3 the water service needs attention and staff assistance has been requested at 13:55 case 951',academic,13,61,44,3,Water
'staff were informed that dust and litter remain around the workstations in cl22-b without any warning notice near the main entrance to the space at 11:18 case 952',lab,11,100,35,3,Cleanliness
'during the latest session the common area is overcrowded in main hall near the main entrance to the space although nearby rooms remain usable at 11:24 case 953',common,11,71,72,2,Other
'staff were informed that the writing surface is damaged and difficult to use in cl15-a although nearby rooms remain usable during a regular teaching period at 11:02 case 954',lab,11,73,52,4,Infrastructure
'today we noticed that network coverage disappears near the back rows in digital area the network service is affected after normal troubleshooting was attempted at 8:08 case 955',library,8,42,60,5,Network
'staff were informed that billing and collection lines are merging into one queue in counter a and staff assistance has been requested near the main entrance to the space at 12:09 case 957',food,12,64,59,2,Canteen
'a repeated observation is that the nearest water point is not operational in cooler b while the area is moderately occupied and it interrupts scheduled teaching at 11:14 case 958',utility,11,97,51,3,Water
'a repeated observation is that the display cable and wall port need repair in food court the physical infrastructure needs attention and staff assistance has been requested at 17:41 case 959',food,17,44,48,3,Cleanliness
'please investigate because the area has not been cleaned since the morning in counter a this is a hygiene and cleanliness concern while another campus service remains normal at 15:42 case 961',food,15,56,58,3,Cleanliness
'today we noticed that the refill indicator has remained empty in gh common room the water service needs attention and the condition has become more frequent at 11:57 case 962',hostel,11,100,39,2,Water
'a repeated observation is that internet speed falls below a usable level in h4 common room and staff assistance has been requested and the issue lasts more than ten minutes at 11:14 case 963',hostel,11,84,41,1,Network
'today we noticed that the refill indicator has remained empty in cs2 the water service needs attention after normal troubleshooting was attempted at 18:44 case 964',academic,18,58,40,2,Water
'staff were informed that the experiment console does not record readings in h4 common room while the area is moderately occupied near the main entrance to the space at 15:02 case 965',hostel,15,31,50,5,Lab_Equipment
'a repeated observation is that a campus service is unavailable without an explanation in cooler b and the condition has become more frequent without any warning notice at 9:22 case 966',utility,9,66,58,2,Other
'today we noticed that the corridor has a persistent hygiene problem in reading hall although nearby rooms remain usable although nearby rooms remain usable at 12:01 case 967',library,12,93,46,3,Cleanliness
'staff were informed that billing and collection lines are merging into one queue in cl22-b near the main entrance to the space and the issue lasts more than ten minutes at 8:19 case 968',lab,8,15,64,4,Electrical
'an urgent maintenance check is needed because standing water is creating an unhygienic patch in student parking this is a hygiene and cleanliness concern although nearby rooms remain usable at 14:55 case 969',outdoor,14,43,32,4,Cleanliness
'please investigate because the drinking-water dispenser is empty in cooler b the water service needs attention while the area is moderately occupied at 13:44 case 970',utility,13,90,76,2,Water
'students report that the air conditioner stops cooling after midday in backstage near the main entrance to the space while the area is moderately occupied at 8:22 case 971',common,8,64,68,5,Electrical
'for the second time this week the cleaning schedule appears to have been missed in gh corridor 1 this is a hygiene and cleanliness concern while the area is moderately occupied at 14:35 case 972',hostel,14,100,49,3,Cleanliness
'students report that the wifi signal is unstable for several devices in cr425 the network service is affected while another campus service remains normal at 13:11 case 973',academic,13,100,60,2,Network
'an urgent maintenance check is needed because pedestrian movement is restricted by stored material in h5 corridor 1 campus operations are being disrupted although nearby rooms remain usable at 14:05 case 974',hostel,14,100,56,5,Other
'staff were informed that the experiment console does not record readings in g3 and the issue lasts more than ten minutes although nearby rooms remain usable at 9:12 case 975',academic,9,37,62,3,Lab_Equipment
'today we noticed that ceiling plaster appears loose near the entrance in cooler b the physical infrastructure needs attention without any warning notice at 13:37 case 976',utility,13,15,44,2,Infrastructure
'an urgent maintenance check is needed because video lectures buffer on the campus connection in cooler a during a regular teaching period while the area is moderately occupied at 18:41 case 978',utility,18,57,42,4,Network
'please investigate because the ceiling fans are not operating in h4 corridor 2 and it interrupts scheduled teaching and it interrupts scheduled teaching at 16:24 case 979',hostel,16,41,50,2,Electrical
'an urgent maintenance check is needed because video lectures buffer on the campus connection in h4 corridor 1 the network service is affected and the issue lasts more than ten minutes at 8:22 case 980',hostel,8,44,58,5,Network
'staff were informed that online resources time out during the session in cr202 and the condition has become more frequent and several students are affected at 11:53 case 982',academic,11,59,42,2,Network
'a repeated observation is that the wash area needs urgent sanitation in food court while another campus service remains normal and it interrupts scheduled teaching at 8:07 case 983',food,8,43,45,5,Cleanliness
'for the second time this week the device driver is missing from the workstation in visitor parking laboratory equipment availability is affected and staff assistance has been requested at 8:49 case 984',outdoor,8,36,48,3,Lab_Equipment
'please investigate because the drinking-water dispenser is empty in h4 common room after normal troubleshooting was attempted near the main entrance to the space at 17:21 case 985',hostel,17,18,48,3,Water
'during the latest session students cannot authenticate to the wireless network in cl3-a the network service is affected and the condition has become more frequent at 14:02 case 986',lab,14,100,65,5,Network
'an urgent maintenance check is needed because signage for the room is missing in basketball court and the issue lasts more than ten minutes while another campus service remains normal at 15:01 case 988',sports,15,100,67,3,Infrastructure
'staff were informed that the writing surface is damaged and difficult to use in cl15-b near the main entrance to the space while the area is moderately occupied at 17:04 case 989',lab,17,53,69,3,Infrastructure
'students report that waste bins are overflowing into the corridor in cl1-a this is a hygiene and cleanliness concern and the issue lasts more than ten minutes at 13:54 case 990',lab,13,76,70,3,Cleanliness
'today we noticed that network coverage disappears near the back rows in g2 the network service is affected and staff assistance has been requested at 8:39 case 991',academic,8,45,44,3,Network
'students report that directional signage is unclear for new students in cl1-a campus operations are being disrupted without any warning notice at 15:17 case 992',lab,15,55,52,2,Other
'for the second time this week order processing has stopped at one counter in g2 and the condition has become more frequent and staff assistance has been requested at 13:19 case 994',academic,13,100,53,4,Canteen
'an urgent maintenance check is needed because video lectures buffer on the campus connection in gh corridor 1 and staff assistance has been requested and the condition has become more frequent at 9:17 case 995',hostel,9,67,39,1,Network
'a repeated observation is that laboratory equipment reports a calibration error in gym laboratory equipment availability is affected although nearby rooms remain usable at 18:06 case 997',sports,18,72,46,2,Lab_Equipment
'please investigate because parking congestion is blocking access in security post campus operations are being disrupted and several students are affected at 14:50 case 998',outdoor,14,84,62,1,Other
'a repeated observation is that the wash area needs urgent sanitation in cl3-a near the main entrance to the space and the issue lasts more than ten minutes at 12:37 case 999',lab,12,60,62,2,Cleanliness
'an urgent maintenance check is needed because the lunch rush is blocking the entrance in cooler a the food service operation is affected after normal troubleshooting was attempted at 8:47 case 1000',utility,8,58,53,2,Canteen
'please investigate because the service queue is moving very slowly in cr102 and staff assistance has been requested after normal troubleshooting was attempted at 14:48 case 1001',academic,14,77,53,5,Canteen
'please investigate because the campus network drops repeatedly during class in gh corridor 1 the network service is affected after normal troubleshooting was attempted at 10:46 case 1002',hostel,10,58,30,1,Network
'a repeated observation is that laboratory equipment reports a calibration error in h5 corridor 2 laboratory equipment availability is affected and several students are affected at 18:13 case 1004',hostel,18,75,28,2,Lab_Equipment
'today we noticed that network coverage disappears near the back rows in cr101 the network service is affected although nearby rooms remain usable at 17:24 case 1005',academic,17,72,36,5,Network
'a repeated observation is that internet speed falls below a usable level in h5 corridor 1 the network service is affected and staff assistance has been requested at 17:56 case 1006',hostel,17,66,59,1,Network
'staff were informed that the experiment console does not record readings in ts12 laboratory equipment availability is affected and staff assistance has been requested at 18:19 case 1007',academic,18,42,20,3,Lab_Equipment
'today we noticed that the corridor has a persistent hygiene problem in g2 this is a hygiene and cleanliness concern after normal troubleshooting was attempted at 17:13 case 1008',academic,17,49,62,3,Cleanliness
'please investigate because the campus network drops repeatedly during class in counter a near the main entrance to the space and several students are affected at 12:58 case 1010',food,12,81,55,4,Network
'a repeated observation is that internet speed falls below a usable level in ece-201 although nearby rooms remain usable after normal troubleshooting was attempted at 12:00 case 1012',lab,12,82,62,2,Network
'staff were informed that the writing surface is damaged and difficult to use in h4 corridor 2 and the condition has become more frequent near the main entrance to the space at 13:51 case 1013',hostel,13,69,50,2,Infrastructure
'a repeated observation is that the display cable and wall port need repair in gate 1 and it interrupts scheduled teaching after normal troubleshooting was attempted at 14:46 case 1014',outdoor,14,73,36,1,Infrastructure
'please investigate because the ceiling fans are not operating in g6 and the condition has become more frequent near the main entrance to the space at 14:05 case 1015',academic,14,61,60,4,Electrical
'students report that directional signage is unclear for new students in cl22-b without any warning notice and the condition has become more frequent at 17:04 case 1016',lab,17,48,89,1,Other
'for the second time this week the device driver is missing from the workstation in cr101 laboratory equipment availability is affected and several students are affected at 15:09 case 1018',academic,15,64,44,2,Lab_Equipment
'an urgent maintenance check is needed because the lunch rush is blocking the entrance in gym the food service operation is affected although nearby rooms remain usable at 15:06 case 1019',sports,15,83,62,1,Canteen
'during the latest session water pressure is too low for normal use in washroom g the water service needs attention and the issue lasts more than ten minutes at 16:03 case 1020',utility,16,53,44,4,Water
'today we noticed that charging points are unavailable in main hall although nearby rooms remain usable and staff assistance has been requested at 15:11 case 1021',common,15,57,46,2,Electrical
'please investigate because the drinking-water dispenser is empty in cooler a near the main entrance to the space while another campus service remains normal at 14:35 case 1022',utility,14,54,63,5,Water
'students report that several desks have loose or damaged fittings in cr425 the physical infrastructure needs attention after normal troubleshooting was attempted at 13:27 case 1023',academic,13,68,58,2,Infrastructure
'today we noticed that the refill indicator has remained empty in cooler b the water service needs attention and the issue lasts more than ten minutes at 16:04 case 1024',utility,16,66,66,2,Water
'today we noticed that multiple computers show storage errors in security post although nearby rooms remain usable while the area is moderately occupied at 14:37 case 1025',outdoor,14,88,27,1,Lab_Equipment
'students report that several desks have loose or damaged fittings in ts18 and the issue lasts more than ten minutes while the area is moderately occupied at 9:43 case 1026',academic,9,94,54,4,Infrastructure
'staff were informed that dust and litter remain around the workstations in cr101 while another campus service remains normal while the area is moderately occupied at 14:41 case 1027',academic,14,63,57,3,Cleanliness
'please investigate because the campus network drops repeatedly during class in security post and the condition has become more frequent near the main entrance to the space at 17:11 case 1028',outdoor,17,44,70,1,Network
'students report that water is leaking into the walking area in cl1-a the water service needs attention and the condition has become more frequent at 16:12 case 1029',lab,16,65,71,3,Electrical
'staff were informed that the writing surface is damaged and difficult to use in cl22-a the physical infrastructure needs attention and staff assistance has been requested at 15:18 case 1030',lab,15,70,51,3,Other
'an urgent maintenance check is needed because the filtration unit shows a service warning in cr201 without any warning notice during a regular teaching period at 17:26 case 1031',academic,17,65,60,2,Water
'a repeated observation is that a campus service is unavailable without an explanation in student parking while another campus service remains normal during a regular teaching period at 9:14 case 1032',outdoor,9,61,73,2,Other
'a repeated observation is that the nearest water point is not operational in h5 common room without any warning notice while another campus service remains normal at 12:35 case 1033',hostel,12,70,53,2,Water
'for the second time this week the ventilation fan does not start in academic office the electrical supply needs inspection and several students are affected at 15:21 case 1034',office,15,95,52,3,Electrical
'students report that the air conditioner stops cooling after midday in h5 corridor 2 the electrical supply needs inspection while the area is moderately occupied at 10:18 case 1035',hostel,10,78,69,3,Electrical
'for the second time this week the cleaning schedule appears to have been missed in counter a and staff assistance has been requested and the issue lasts more than ten minutes at 14:12 case 1036',food,14,39,38,2,Cleanliness
'during the latest session the classroom door cannot close safely in h4 corridor 2 and the condition has become more frequent although nearby rooms remain usable at 18:27 case 1037',hostel,18,40,72,3,Infrastructure
'an urgent maintenance check is needed because video lectures buffer on the campus connection in ece-201 the network service is affected during a regular teaching period at 8:42 case 1038',lab,8,84,41,3,Network
'for the second time this week the ventilation fan does not start in g6 without any warning notice during a regular teaching period at 15:20 case 1039',academic,15,70,65,1,Electrical
'an urgent maintenance check is needed because the filtration unit shows a service warning in group study although nearby rooms remain usable after normal troubleshooting was attempted at 15:40 case 1040',library,15,63,91,3,Water
'for the second time this week order processing has stopped at one counter in cl22-a while another campus service remains normal while the area is moderately occupied at 10:31 case 1041',lab,10,15,57,1,Canteen
'staff were informed that a tap continues running after it is closed in cr425 the water service needs attention while another campus service remains normal at 17:00 case 1043',academic,17,70,75,2,Water
'today we noticed that seating capacity is insufficient during the meal break in billing counter after normal troubleshooting was attempted after normal troubleshooting was attempted at 10:51 case 1044',food,10,88,81,3,Canteen
'please investigate because the campus network drops repeatedly during class in indoor court without any warning notice while the area is moderately occupied at 13:44 case 1045',sports,13,100,35,1,Network
'please investigate because the projector loses its input after a few minutes in g1 the physical infrastructure needs attention and the condition has become more frequent at 12:53 case 1047',academic,12,75,62,2,Infrastructure
'students report that only one billing counter is open during the rush in ts17 the food service operation is affected and staff assistance has been requested at 14:50 case 1048',academic,14,79,31,4,Canteen
'for the second time this week water is collecting beneath the dispenser in ff6 the water service needs attention and staff assistance has been requested at 17:57 case 1049',academic,17,52,52,2,Water
'during the latest session the classroom door cannot close safely in counter a after normal troubleshooting was attempted near the main entrance to the space at 17:49 case 1050',food,17,28,47,3,Infrastructure
'a repeated observation is that a power socket is loose and unsafe in security post although nearby rooms remain usable near the main entrance to the space at 15:47 case 1053',outdoor,15,78,49,3,Electrical
'during the latest session lights flicker repeatedly during use in h5 corridor 1 while another campus service remains normal while another campus service remains normal at 11:41 case 1054',hostel,11,44,45,3,Electrical
'during the latest session the common area is overcrowded in indoor court campus operations are being disrupted during a regular teaching period at 13:10 case 1055',sports,13,66,54,3,Other
'today we noticed that network coverage disappears near the back rows in g2 and the condition has become more frequent after normal troubleshooting was attempted at 8:26 case 1056',academic,8,81,67,3,Network
'a repeated observation is that internet speed falls below a usable level in washroom 1 the network service is affected and several students are affected at 17:24 case 1057',utility,17,53,73,4,Network
'for the second time this week the device driver is missing from the workstation in cr102 laboratory equipment availability is affected after normal troubleshooting was attempted at 17:11 case 1058',academic,17,53,53,2,Lab_Equipment
'today we noticed that seating capacity is insufficient during the meal break in backstage without any warning notice after normal troubleshooting was attempted at 10:12 case 1061',common,10,61,63,3,Canteen
'a repeated observation is that the wash area needs urgent sanitation in ece-202 after normal troubleshooting was attempted and the condition has become more frequent at 16:24 case 1063',lab,16,73,84,2,Cleanliness
'students report that several desks have loose or damaged fittings in ece-202 and the condition has become more frequent and several students are affected at 12:12 case 1064',lab,12,81,66,4,Infrastructure
'a repeated observation is that the display cable and wall port need repair in cr101 and the condition has become more frequent and staff assistance has been requested at 11:08 case 1065',academic,11,83,30,5,Infrastructure
'during the latest session lights flicker repeatedly during use in cl22-a the electrical supply needs inspection while another campus service remains normal at 17:15 case 1066',lab,17,63,68,5,Electrical
'today we noticed that charging points are unavailable in digital area the electrical supply needs inspection during a regular teaching period at 9:34 case 1068',library,9,78,76,1,Electrical
'staff were informed that a tap continues running after it is closed in g2 the water service needs attention during a regular teaching period at 14:51 case 1069',academic,14,60,59,4,Water
'an urgent maintenance check is needed because signage for the room is missing in g6 during a regular teaching period and the issue lasts more than ten minutes at 14:21 case 1070',academic,14,69,63,4,Infrastructure
'an urgent maintenance check is needed because the filtration unit shows a service warning in cl22-b the water service needs attention and the condition has become more frequent at 11:54 case 1072',lab,11,43,85,4,Water
'during the latest session students cannot authenticate to the wireless network in dining hall the network service is affected without any warning notice at 15:25 case 1074',food,15,40,70,2,Network
'for the second time this week order processing has stopped at one counter in gh corridor 1 while another campus service remains normal and it interrupts scheduled teaching at 13:59 case 1075',hostel,13,67,45,3,Canteen
'staff were informed that dust and litter remain around the workstations in washroom g this is a hygiene and cleanliness concern and the condition has become more frequent at 9:49 case 1077',utility,9,81,61,4,Cleanliness
'today we noticed that ceiling plaster appears loose near the entrance in ece-201 the physical infrastructure needs attention while the area is moderately occupied at 9:10 case 1078',lab,9,71,66,3,Infrastructure
'today we noticed that charging points are unavailable in h5 corridor 2 and staff assistance has been requested near the main entrance to the space at 17:22 case 1079',hostel,17,63,68,3,Electrical
'a repeated observation is that the wash area needs urgent sanitation in h4 corridor 2 this is a hygiene and cleanliness concern and staff assistance has been requested at 10:40 case 1080',hostel,10,68,40,2,Cleanliness
'today we noticed that multiple computers show storage errors in ece-201 and several students are affected although nearby rooms remain usable at 18:03 case 1081',lab,18,67,70,3,Lab_Equipment
'for the second time this week the cleaning schedule appears to have been missed in reading hall and it interrupts scheduled teaching after normal troubleshooting was attempted at 11:10 case 1082',library,11,48,69,2,Cleanliness
'staff were informed that billing and collection lines are merging into one queue in ece-202 and the issue lasts more than ten minutes and staff assistance has been requested at 9:01 case 1083',lab,9,69,52,3,Canteen
'for the second time this week the help desk is closed during published hours in security post and it interrupts scheduled teaching and the condition has become more frequent at 9:21 case 1084',outdoor,9,34,59,3,Other
'students report that water is leaking into the walking area in student parking the water service needs attention although nearby rooms remain usable at 9:02 case 1085',outdoor,9,50,57,1,Water
'students report that the wifi signal is unstable for several devices in cs1 during a regular teaching period although nearby rooms remain usable at 8:28 case 1086',academic,8,77,63,1,Network
'for the second time this week the cleaning schedule appears to have been missed in billing counter while another campus service remains normal although nearby rooms remain usable at 11:35 case 1087',food,11,63,38,2,Cleanliness
'students report that the wifi signal is unstable for several devices in basketball court without any warning notice after normal troubleshooting was attempted at 8:52 case 1089',sports,8,62,44,2,Network
'during the latest session students cannot authenticate to the wireless network in backstage and it interrupts scheduled teaching and it interrupts scheduled teaching at 9:15 case 1092',common,9,28,52,3,Network
'today we noticed that multiple computers show storage errors in cl1-b and several students are affected although nearby rooms remain usable at 11:10 case 1093',lab,11,6,59,2,Lab_Equipment
'an urgent maintenance check is needed because the lab printer is unavailable to student systems in cl15-a and the condition has become more frequent and several students are affected at 16:50 case 1094',lab,16,68,35,2,Lab_Equipment
'for the second time this week the lecture-room screen does not lower correctly in cs1 and staff assistance has been requested and the issue lasts more than ten minutes at 17:12 case 1095',academic,17,87,63,4,Infrastructure
'during the latest session lights flicker repeatedly during use in cr102 the electrical supply needs inspection and it interrupts scheduled teaching at 11:11 case 1096',academic,11,68,64,2,Electrical
'for the second time this week water is collecting beneath the dispenser in gh common room the water service needs attention during a regular teaching period at 9:28 case 1097',hostel,9,77,54,2,Water
'during the latest session students cannot authenticate to the wireless network in cs2 while another campus service remains normal and staff assistance has been requested at 8:12 case 1099',academic,8,32,56,5,Network
'staff were informed that billing and collection lines are merging into one queue in reception the food service operation is affected during a regular teaching period at 10:05 case 1100',office,10,60,44,3,Canteen
'for the second time this week the lecture-room screen does not lower correctly in h4 corridor 2 the physical infrastructure needs attention and several students are affected at 13:38 case 1101',hostel,13,32,59,2,Infrastructure
'students report that the wifi signal is unstable for several devices in digital area although nearby rooms remain usable without any warning notice at 16:41 case 1102',library,16,83,53,3,Network
'students report that waste bins are overflowing into the corridor in food court and the issue lasts more than ten minutes after normal troubleshooting was attempted at 14:15 case 1103',food,14,48,52,4,Cleanliness
'please investigate because the area has not been cleaned since the morning in cs1 this is a hygiene and cleanliness concern while another campus service remains normal at 17:58 case 1105',academic,17,73,47,2,Cleanliness
'staff were informed that the writing surface is damaged and difficult to use in reading hall while the area is moderately occupied during a regular teaching period at 9:07 case 1106',library,9,67,31,2,Infrastructure
'for the second time this week the lecture-room screen does not lower correctly in h4 corridor 1 the physical infrastructure needs attention after normal troubleshooting was attempted at 15:21 case 1107',hostel,15,64,40,2,Infrastructure
'staff were informed that billing and collection lines are merging into one queue in basketball court the food service operation is affected after normal troubleshooting was attempted at 13:06 case 1108',sports,13,100,55,2,Lab_Equipment
'for the second time this week order processing has stopped at one counter in ts12 near the main entrance to the space and the condition has become more frequent at 14:17 case 1109',academic,14,81,44,3,Canteen
'today we noticed that network coverage disappears near the back rows in gate 1 and the condition has become more frequent and it interrupts scheduled teaching at 8:41 case 1110',outdoor,8,72,43,5,Network
'for the second time this week the lecture-room screen does not lower correctly in h4 corridor 1 during a regular teaching period near the main entrance to the space at 10:24 case 1111',hostel,10,62,72,2,Infrastructure
'an urgent maintenance check is needed because signage for the room is missing in ts12 and the issue lasts more than ten minutes and staff assistance has been requested at 9:58 case 1112',academic,9,73,74,2,Infrastructure
'during the latest session the common area is overcrowded in ff6 campus operations are being disrupted and the issue lasts more than ten minutes at 18:19 case 1115',academic,18,47,53,4,Other
'today we noticed that the corridor has a persistent hygiene problem in h5 corridor 2 this is a hygiene and cleanliness concern and the condition has become more frequent at 10:17 case 1116',hostel,10,49,63,2,Cleanliness
'a repeated observation is that internet speed falls below a usable level in gh common room the network service is affected and it interrupts scheduled teaching at 10:58 case 1117',hostel,10,22,66,2,Network
'for the second time this week the wired connection cannot reach institute services in cs2 after normal troubleshooting was attempted after normal troubleshooting was attempted at 16:41 case 1118',academic,16,41,65,4,Network
'an urgent maintenance check is needed because the filtration unit shows a service warning in group study and it interrupts scheduled teaching and the condition has become more frequent at 15:28 case 1119',library,15,45,44,3,Water
'an urgent maintenance check is needed because the lunch rush is blocking the entrance in h4 common room the food service operation is affected and it interrupts scheduled teaching at 12:55 case 1120',hostel,12,50,63,4,Canteen
'for the second time this week order processing has stopped at one counter in cl3-b the food service operation is affected and staff assistance has been requested at 10:02 case 1121',lab,10,47,73,2,Canteen
'during the latest session the classroom door cannot close safely in food court while another campus service remains normal and it interrupts scheduled teaching at 10:49 case 1122',food,10,96,70,2,Infrastructure
'a repeated observation is that internet speed falls below a usable level in h4 corridor 2 the network service is affected after normal troubleshooting was attempted at 8:14 case 1124',hostel,8,52,41,1,Network
'a repeated observation is that laboratory equipment reports a calibration error in cl15-a laboratory equipment availability is affected and the condition has become more frequent at 11:58 case 1126',lab,11,73,53,3,Lab_Equipment
'today we noticed that network coverage disappears near the back rows in cs2 the network service is affected after normal troubleshooting was attempted at 12:38 case 1127',academic,12,73,47,3,Network
'for the second time this week the wired connection cannot reach institute services in cl15-a the network service is affected and staff assistance has been requested at 13:58 case 1128',lab,13,44,40,2,Network
'staff were informed that a tap continues running after it is closed in ts17 although nearby rooms remain usable and the issue lasts more than ten minutes at 8:17 case 1129',academic,8,52,46,3,Water
'students report that several desks have loose or damaged fittings in h4 corridor 2 although nearby rooms remain usable during a regular teaching period at 15:12 case 1130',hostel,15,52,54,2,Infrastructure
'staff were informed that a tap continues running after it is closed in gh common room the water service needs attention while another campus service remains normal at 15:28 case 1132',hostel,15,71,61,5,Cleanliness
'students report that a monitor and keyboard are not detected in group study although nearby rooms remain usable and several students are affected at 17:17 case 1133',library,17,27,78,3,Lab_Equipment
'staff were informed that an unattended item is obstructing the walkway in reading hall without any warning notice and staff assistance has been requested at 11:41 case 1134',library,11,74,44,1,Other
'for the second time this week water is collecting beneath the dispenser in cl22-b the water service needs attention without any warning notice at 17:52 case 1135',lab,17,40,65,3,Water
'students report that water is leaking into the walking area in cooler b the water service needs attention near the main entrance to the space at 13:04 case 1139',utility,13,100,45,3,Water
'an urgent maintenance check is needed because standing water is creating an unhygienic patch in reading hall while the area is moderately occupied while another campus service remains normal at 14:51 case 1140',library,14,82,82,3,Cleanliness
'please investigate because the projector loses its input after a few minutes in gh common room the physical infrastructure needs attention without any warning notice at 9:07 case 1141',hostel,9,52,62,5,Infrastructure
'an urgent maintenance check is needed because signage for the room is missing in ts12 the physical infrastructure needs attention after normal troubleshooting was attempted at 17:58 case 1143',academic,17,38,69,2,Infrastructure
'an urgent maintenance check is needed because pedestrian movement is restricted by stored material in cl15-b and several students are affected and the condition has become more frequent at 9:18 case 1144',lab,9,57,39,1,Other
'during the latest session the workstation cannot boot for the practical in h5 corridor 2 laboratory equipment availability is affected and the issue lasts more than ten minutes at 14:46 case 1145',hostel,14,45,89,3,Lab_Equipment
'today we noticed that network coverage disappears near the back rows in cooler b the network service is affected and the issue lasts more than ten minutes at 12:30 case 1146',utility,12,55,53,2,Network
'an urgent maintenance check is needed because the lunch rush is blocking the entrance in h5 corridor 2 the food service operation is affected and the issue lasts more than ten minutes at 13:42 case 1147',hostel,13,100,52,2,Canteen
'today we noticed that seating capacity is insufficient during the meal break in cr101 near the main entrance to the space during a regular teaching period at 18:03 case 1148',academic,18,55,57,2,Canteen
'today we noticed that charging points are unavailable in backstage the electrical supply needs inspection without any warning notice at 11:05 case 1150',common,11,56,52,3,Electrical
'an urgent maintenance check is needed because signage for the room is missing in ff6 and the condition has become more frequent near the main entrance to the space at 15:52 case 1152',academic,15,83,35,3,Infrastructure
'today we noticed that charging points are unavailable in gh common room the electrical supply needs inspection and the condition has become more frequent at 8:14 case 1154',hostel,8,48,57,4,Electrical
'students report that directional signage is unclear for new students in cl3-a during a regular teaching period and staff assistance has been requested at 8:44 case 1155',lab,8,100,89,4,Other
'staff were informed that an unattended item is obstructing the walkway in ts18 campus operations are being disrupted and the condition has become more frequent at 8:15 case 1156',academic,8,39,70,3,Other
'students report that several desks have loose or damaged fittings in cr202 the physical infrastructure needs attention and staff assistance has been requested at 8:09 case 1157',academic,8,88,57,3,Infrastructure
'today we noticed that network coverage disappears near the back rows in g2 and several students are affected during a regular teaching period at 15:50 case 1158',academic,15,52,48,1,Network
'students report that several desks have loose or damaged fittings in security post while another campus service remains normal and it interrupts scheduled teaching at 8:42 case 1162',outdoor,8,63,59,4,Infrastructure
'for the second time this week the ventilation fan does not start in cooler a the electrical supply needs inspection while another campus service remains normal at 15:52 case 1163',utility,15,78,42,2,Electrical
'students report that only one billing counter is open during the rush in counter a the food service operation is affected near the main entrance to the space at 12:15 case 1165',food,12,86,47,2,Canteen
'an urgent maintenance check is needed because a switchboard becomes warm during operation in gh corridor 1 near the main entrance to the space and the issue lasts more than ten minutes at 17:37 case 1166',hostel,17,55,65,3,Electrical
'today we noticed that the corridor has a persistent hygiene problem in cooler a this is a hygiene and cleanliness concern although nearby rooms remain usable at 16:48 case 1167',utility,16,85,62,1,Cleanliness
'for the second time this week the wired connection cannot reach institute services in cr101 the network service is affected during a regular teaching period at 17:57 case 1168',academic,17,91,47,2,Network
'staff were informed that online resources time out during the session in g5 while another campus service remains normal and it interrupts scheduled teaching at 12:41 case 1170',academic,12,58,48,2,Network
'during the latest session the workstation cannot boot for the practical in gym and it interrupts scheduled teaching and it interrupts scheduled teaching at 15:42 case 1171',sports,15,67,65,2,Lab_Equipment
'an urgent maintenance check is needed because the lunch rush is blocking the entrance in counter a the food service operation is affected although nearby rooms remain usable at 15:46 case 1173',food,15,66,38,4,Lab_Equipment
'an urgent maintenance check is needed because pedestrian movement is restricted by stored material in cr425 campus operations are being disrupted and staff assistance has been requested at 10:25 case 1174',academic,10,75,70,2,Other
'students report that the wifi signal is unstable for several devices in washroom g the network service is affected although nearby rooms remain usable at 13:02 case 1175',utility,13,100,45,4,Network
'today we noticed that the corridor has a persistent hygiene problem in cl3-a this is a hygiene and cleanliness concern without any warning notice at 14:50 case 1176',lab,14,64,38,2,Cleanliness
'during the latest session the workstation cannot boot for the practical in ece-202 laboratory equipment availability is affected while the area is moderately occupied at 11:59 case 1177',lab,11,71,41,4,Lab_Equipment
'an urgent maintenance check is needed because standing water is creating an unhygienic patch in cr201 this is a hygiene and cleanliness concern while another campus service remains normal at 18:32 case 1179',academic,18,20,47,3,Cleanliness
'for the second time this week the cleaning schedule appears to have been missed in h4 corridor 1 after normal troubleshooting was attempted and staff assistance has been requested at 14:51 case 1180',hostel,14,64,76,3,Cleanliness
'staff were informed that an electrical panel is making an unusual sound in h4 corridor 1 and it interrupts scheduled teaching during a regular teaching period at 17:01 case 1181',hostel,17,65,48,1,Electrical
'staff were informed that the experiment console does not record readings in h5 corridor 2 although nearby rooms remain usable while another campus service remains normal at 18:55 case 1182',hostel,18,58,66,3,Lab_Equipment
'please investigate because the campus network drops repeatedly during class in cl15-b after normal troubleshooting was attempted while the area is moderately occupied at 9:21 case 1183',lab,9,71,73,4,Network
'please investigate because the campus network drops repeatedly during class in main hall while the area is moderately occupied while the area is moderately occupied at 10:36 case 1185',common,10,35,57,4,Network
'today we noticed that network coverage disappears near the back rows in ts18 while another campus service remains normal while the area is moderately occupied at 9:24 case 1186',academic,9,48,62,4,Network
'staff were informed that dust and litter remain around the workstations in visitor parking this is a hygiene and cleanliness concern during a regular teaching period at 10:20 case 1187',outdoor,10,100,55,1,Cleanliness
'for the second time this week order processing has stopped at one counter in ts18 the food service operation is affected although nearby rooms remain usable at 10:54 case 1188',academic,10,95,50,3,Canteen
'today we noticed that ceiling plaster appears loose near the entrance in cl22-a near the main entrance to the space near the main entrance to the space at 11:04 case 1189',lab,11,76,48,1,Infrastructure
'an urgent maintenance check is needed because the filtration unit shows a service warning in washroom 1 while the area is moderately occupied and it interrupts scheduled teaching at 17:40 case 1190',utility,17,54,39,2,Other
'students report that several desks have loose or damaged fittings in cooler a after normal troubleshooting was attempted while the area is moderately occupied at 16:19 case 1192',utility,16,51,54,2,Infrastructure
'today we noticed that the notice board contains outdated information in cl22-b and several students are affected without any warning notice at 10:50 case 1193',lab,10,60,67,4,Other
'students report that only one billing counter is open during the rush in indoor court the food service operation is affected and staff assistance has been requested at 12:34 case 1194',sports,12,61,60,2,Canteen
'students report that a monitor and keyboard are not detected in cl3-a and staff assistance has been requested and staff assistance has been requested at 17:58 case 1196',lab,17,29,57,4,Lab_Equipment
'staff were informed that an electrical panel is making an unusual sound in cl3-a and several students are affected while another campus service remains normal at 15:59 case 1197',lab,15,37,55,3,Electrical
'a repeated observation is that a campus service is unavailable without an explanation in cr101 and the issue lasts more than ten minutes without any warning notice at 14:11 case 1199',academic,14,90,71,2,Other
'a repeated observation is that the queue extends into the walking area in gh corridor 1 the food service operation is affected without any warning notice at 14:07 case 1200',hostel,14,79,40,1,Canteen
'today we noticed that ceiling plaster appears loose near the entrance in h4 corridor 1 the physical infrastructure needs attention although nearby rooms remain usable at 10:22 case 1202',hostel,10,54,48,1,Infrastructure
'a repeated observation is that a power socket is loose and unsafe in ts17 the electrical supply needs inspection after normal troubleshooting was attempted at 9:57 case 1203',academic,9,48,75,2,Electrical
'for the second time this week the device driver is missing from the workstation in cs1 laboratory equipment availability is affected and staff assistance has been requested at 15:36 case 1204',academic,15,74,46,4,Lab_Equipment
'students report that several desks have loose or damaged fittings in ts18 the physical infrastructure needs attention while another campus service remains normal at 12:02 case 1205',academic,12,78,61,2,Infrastructure
'a repeated observation is that the nearest water point is not operational in washroom 1 and it interrupts scheduled teaching during a regular teaching period at 15:43 case 1206',utility,15,73,49,5,Water
'students report that the air conditioner stops cooling after midday in h4 corridor 2 the electrical supply needs inspection while another campus service remains normal at 15:46 case 1207',hostel,15,32,72,2,Electrical
'for the second time this week the cleaning schedule appears to have been missed in backstage this is a hygiene and cleanliness concern and the issue lasts more than ten minutes at 14:37 case 1208',common,14,64,85,4,Cleanliness
'please investigate because the service queue is moving very slowly in gh corridor 1 while another campus service remains normal and it interrupts scheduled teaching at 17:09 case 1209',hostel,17,100,59,4,Canteen
'an urgent maintenance check is needed because the filtration unit shows a service warning in basketball court although nearby rooms remain usable after normal troubleshooting was attempted at 12:43 case 1210',sports,12,48,43,5,Water
'during the latest session a spill has made the floor slippery in h4 corridor 1 this is a hygiene and cleanliness concern near the main entrance to the space at 9:25 case 1212',hostel,9,66,47,2,Cleanliness
'for the second time this week the device driver is missing from the workstation in basketball court laboratory equipment availability is affected although nearby rooms remain usable at 16:09 case 1215',sports,16,56,54,1,Lab_Equipment
'staff were informed that the experiment console does not record readings in cl15-b laboratory equipment availability is affected and staff assistance has been requested at 11:39 case 1216',lab,11,61,31,1,Lab_Equipment
'an urgent maintenance check is needed because the filtration unit shows a service warning in washroom 1 without any warning notice although nearby rooms remain usable at 17:33 case 1217',utility,17,65,57,3,Water
'staff were informed that dust and litter remain around the workstations in student parking and the issue lasts more than ten minutes and several students are affected at 16:14 case 1218',outdoor,16,44,59,2,Cleanliness
'please investigate because the service queue is moving very slowly in cs1 the food service operation is affected although nearby rooms remain usable at 8:49 case 1219',academic,8,66,60,3,Canteen
'staff were informed that the experiment console does not record readings in ts11 and staff assistance has been requested and staff assistance has been requested at 9:27 case 1220',academic,9,41,54,2,Lab_Equipment
'please investigate because the ceiling fans are not operating in h4 corridor 2 and staff assistance has been requested and the condition has become more frequent at 10:32 case 1222',hostel,10,92,80,3,Electrical
'during the latest session a spill has made the floor slippery in ece-202 this is a hygiene and cleanliness concern without any warning notice at 12:03 case 1223',lab,12,62,53,3,Cleanliness
'a repeated observation is that laboratory equipment reports a calibration error in reading hall laboratory equipment availability is affected without any warning notice at 9:47 case 1225',library,9,35,62,2,Electrical
'students report that several desks have loose or damaged fittings in ts11 the physical infrastructure needs attention without any warning notice at 9:09 case 1226',academic,9,62,57,1,Infrastructure
'during the latest session a spill has made the floor slippery in cs1 and the issue lasts more than ten minutes although nearby rooms remain usable at 11:28 case 1228',academic,11,61,42,1,Cleanliness
'please investigate because the ceiling fans are not operating in gym and the issue lasts more than ten minutes and staff assistance has been requested at 17:04 case 1230',sports,17,60,57,4,Electrical
'during the latest session water pressure is too low for normal use in cl1-b and several students are affected and staff assistance has been requested at 11:41 case 1231',lab,11,66,65,3,Water
'a repeated observation is that laboratory equipment reports a calibration error in h4 corridor 2 and it interrupts scheduled teaching during a regular teaching period at 8:14 case 1232',hostel,8,63,20,3,Lab_Equipment
'an urgent maintenance check is needed because video lectures buffer on the campus connection in gh corridor 1 and it interrupts scheduled teaching and it interrupts scheduled teaching at 16:21 case 1233',hostel,16,50,47,1,Network
'for the second time this week the lecture-room screen does not lower correctly in cl22-b the physical infrastructure needs attention and staff assistance has been requested at 14:05 case 1234',lab,14,52,80,2,Infrastructure
'students report that several desks have loose or damaged fittings in h5 corridor 2 and the condition has become more frequent while the area is moderately occupied at 11:09 case 1236',hostel,11,68,55,2,Infrastructure
'students report that only one billing counter is open during the rush in cooler b near the main entrance to the space and the issue lasts more than ten minutes at 15:49 case 1237',utility,15,80,43,2,Canteen
'please investigate because the ceiling fans are not operating in digital area the electrical supply needs inspection after normal troubleshooting was attempted at 11:08 case 1238',library,11,53,81,3,Electrical
'please investigate because the campus network drops repeatedly during class in basketball court while another campus service remains normal and it interrupts scheduled teaching at 9:02 case 1240',sports,9,85,56,2,Network
'during the latest session students are waiting too long for food service in ts18 and the condition has become more frequent without any warning notice at 11:40 case 1242',academic,11,90,48,2,Canteen
'an urgent maintenance check is needed because video lectures buffer on the campus connection in g2 during a regular teaching period without any warning notice at 15:18 case 1243',academic,15,100,53,2,Network
'please investigate because the drinking-water dispenser is empty in h4 corridor 1 the water service needs attention while another campus service remains normal at 16:32 case 1244',hostel,16,32,61,1,Water
'staff were informed that billing and collection lines are merging into one queue in g2 near the main entrance to the space and several students are affected at 13:15 case 1245',academic,13,63,41,2,Canteen
'staff were informed that the experiment console does not record readings in reading hall after normal troubleshooting was attempted and it interrupts scheduled teaching at 9:18 case 1249',library,9,39,47,3,Lab_Equipment
'students report that the wifi signal is unstable for several devices in gh common room the network service is affected and the issue lasts more than ten minutes at 17:38 case 1250',hostel,17,32,62,1,Network
'staff were informed that dust and litter remain around the workstations in ts17 this is a hygiene and cleanliness concern during a regular teaching period at 16:51 case 1251',academic,16,56,55,4,Cleanliness
'students report that the wifi signal is unstable for several devices in g2 the network service is affected near the main entrance to the space at 16:15 case 1252',academic,16,61,68,2,Network
'for the second time this week the ventilation fan does not start in gh common room the electrical supply needs inspection and the condition has become more frequent at 15:17 case 1253',hostel,15,68,52,3,Electrical
'during the latest session students are waiting too long for food service in gym while another campus service remains normal and the condition has become more frequent at 8:12 case 1254',sports,8,51,42,4,Canteen
'for the second time this week the cleaning schedule appears to have been missed in washroom g this is a hygiene and cleanliness concern during a regular teaching period at 16:24 case 1255',utility,16,62,35,3,Cleanliness
'students report that the air conditioner stops cooling after midday in cl1-b while the area is moderately occupied and several students are affected at 14:05 case 1256',lab,14,48,56,1,Electrical
'staff were informed that dust and litter remain around the workstations in group study and the condition has become more frequent without any warning notice at 15:30 case 1257',library,15,37,70,4,Cleanliness
'please investigate because the service queue is moving very slowly in dining hall and the condition has become more frequent while the area is moderately occupied at 8:12 case 1258',food,8,64,44,4,Canteen
'today we noticed that ceiling plaster appears loose near the entrance in cs2 the physical infrastructure needs attention while another campus service remains normal at 14:47 case 1259',academic,14,100,58,3,Infrastructure
'today we noticed that ceiling plaster appears loose near the entrance in ts11 during a regular teaching period although nearby rooms remain usable at 8:43 case 1260',academic,8,22,69,2,Infrastructure
'an urgent maintenance check is needed because the filtration unit shows a service warning in gym the water service needs attention and the issue lasts more than ten minutes at 8:57 case 1261',sports,8,40,51,2,Water
'staff were informed that billing and collection lines are merging into one queue in cr101 without any warning notice while the area is moderately occupied at 8:07 case 1262',academic,8,72,64,3,Canteen
'during the latest session the workstation cannot boot for the practical in cl15-a near the main entrance to the space although nearby rooms remain usable at 18:23 case 1264',lab,18,67,63,3,Infrastructure
'an urgent maintenance check is needed because a switchboard becomes warm during operation in cl3-a while another campus service remains normal and the issue lasts more than ten minutes at 15:20 case 1265',lab,15,62,51,1,Electrical
'for the second time this week order processing has stopped at one counter in cr101 while another campus service remains normal near the main entrance to the space at 18:16 case 1266',academic,18,59,46,2,Canteen
'during the latest session a spill has made the floor slippery in reading hall after normal troubleshooting was attempted and the issue lasts more than ten minutes at 14:52 case 1267',library,14,61,43,2,Cleanliness
'please investigate because the campus network drops repeatedly during class in ts11 the network service is affected and several students are affected at 8:22 case 1268',academic,8,52,74,3,Network
'an urgent maintenance check is needed because the filtration unit shows a service warning in g1 the water service needs attention and it interrupts scheduled teaching at 15:43 case 1270',academic,15,77,49,3,Water
'staff were informed that a tap continues running after it is closed in g5 and the condition has become more frequent near the main entrance to the space at 10:38 case 1272',academic,10,50,77,2,Water
'for the second time this week the wired connection cannot reach institute services in cr102 after normal troubleshooting was attempted while another campus service remains normal at 14:06 case 1275',academic,14,100,70,4,Network
'for the second time this week water is collecting beneath the dispenser in washroom 1 the water service needs attention and staff assistance has been requested at 10:15 case 1277',utility,10,60,64,5,Water
'please investigate because parking congestion is blocking access in food court during a regular teaching period and the issue lasts more than ten minutes at 12:02 case 1278',food,12,48,29,2,Other
'staff were informed that dust and litter remain around the workstations in g2 and staff assistance has been requested and the issue lasts more than ten minutes at 16:24 case 1279',academic,16,74,56,2,Cleanliness
'a repeated observation is that the queue extends into the walking area in washroom g the food service operation is affected and the issue lasts more than ten minutes at 14:26 case 1281',utility,14,63,80,2,Canteen
'students report that only one billing counter is open during the rush in billing counter while the area is moderately occupied and the condition has become more frequent at 17:53 case 1282',food,17,70,66,1,Canteen
'students report that several desks have loose or damaged fittings in cr101 the physical infrastructure needs attention during a regular teaching period at 12:49 case 1283',academic,12,55,45,2,Infrastructure
'staff were informed that a tap continues running after it is closed in washroom g and several students are affected and several students are affected at 17:12 case 1284',utility,17,90,52,2,Water
'for the second time this week the lecture-room screen does not lower correctly in cl1-b while the area is moderately occupied and the issue lasts more than ten minutes at 18:17 case 1285',lab,18,61,74,2,Electrical
'during the latest session students cannot authenticate to the wireless network in cl3-a although nearby rooms remain usable during a regular teaching period at 8:08 case 1286',lab,8,83,53,2,Network
'for the second time this week the device driver is missing from the workstation in h5 common room laboratory equipment availability is affected and the condition has become more frequent at 10:48 case 1287',hostel,10,77,60,4,Lab_Equipment
'a repeated observation is that a power socket is loose and unsafe in digital area and several students are affected although nearby rooms remain usable at 18:18 case 1288',library,18,56,70,4,Electrical
'please investigate because several systems freeze during compilation in basketball court laboratory equipment availability is affected near the main entrance to the space at 14:24 case 1289',sports,14,94,32,3,Lab_Equipment
'please investigate because the service queue is moving very slowly in ts11 the food service operation is affected while another campus service remains normal at 13:40 case 1291',academic,13,50,72,2,Canteen
'a repeated observation is that internet speed falls below a usable level in gym the network service is affected and the condition has become more frequent at 10:32 case 1292',sports,10,84,47,2,Network
'today we noticed that the refill indicator has remained empty in cl3-b although nearby rooms remain usable while another campus service remains normal at 17:42 case 1294',lab,17,74,50,3,Water
'staff were informed that online resources time out during the session in cs2 the network service is affected and the issue lasts more than ten minutes at 9:47 case 1295',academic,9,44,50,4,Electrical
'for the second time this week order processing has stopped at one counter in dining hall during a regular teaching period without any warning notice at 18:16 case 1296',food,18,58,94,5,Canteen
'staff were informed that an unattended item is obstructing the walkway in academic office campus operations are being disrupted without any warning notice at 13:06 case 1297',office,13,78,39,5,Other
'students report that several desks have loose or damaged fittings in cs2 the physical infrastructure needs attention and several students are affected at 16:46 case 1298',academic,16,57,70,5,Infrastructure
'students report that waste bins are overflowing into the corridor in cooler b after normal troubleshooting was attempted although nearby rooms remain usable at 17:29 case 1299',utility,17,75,39,2,Cleanliness
'today we noticed that charging points are unavailable in h5 corridor 1 the electrical supply needs inspection while the area is moderately occupied at 12:16 case 1300',hostel,12,75,82,2,Electrical
'a repeated observation is that a campus service is unavailable without an explanation in basketball court near the main entrance to the space while another campus service remains normal at 13:01 case 1301',sports,13,41,67,3,Other
'today we noticed that the notice board contains outdated information in ece-202 campus operations are being disrupted while another campus service remains normal at 17:17 case 1303',lab,17,94,66,3,Other
'for the second time this week order processing has stopped at one counter in food court while another campus service remains normal and staff assistance has been requested at 12:28 case 1304',food,12,79,47,4,Canteen
'a repeated observation is that the nearest water point is not operational in h4 corridor 1 although nearby rooms remain usable and the issue lasts more than ten minutes at 11:26 case 1305',hostel,11,71,46,4,Water
'today we noticed that charging points are unavailable in cl1-b the electrical supply needs inspection and it interrupts scheduled teaching at 16:30 case 1306',lab,16,61,65,2,Electrical
'students report that the air conditioner stops cooling after midday in h4 corridor 1 after normal troubleshooting was attempted and several students are affected at 13:18 case 1307',hostel,13,42,78,2,Electrical
'staff were informed that the writing surface is damaged and difficult to use in cs2 and several students are affected although nearby rooms remain usable at 13:33 case 1308',academic,13,78,65,3,Infrastructure
'today we noticed that seating capacity is insufficient during the meal break in washroom 1 the food service operation is affected and staff assistance has been requested at 8:21 case 1309',utility,8,66,67,2,Canteen
'for the second time this week the lecture-room screen does not lower correctly in h4 corridor 2 the physical infrastructure needs attention and the condition has become more frequent at 16:44 case 1310',hostel,16,27,40,3,Infrastructure
'a repeated observation is that the queue extends into the walking area in ts18 during a regular teaching period and the condition has become more frequent at 9:47 case 1311',academic,9,43,63,1,Canteen
'staff were informed that an electrical panel is making an unusual sound in cl3-a and the issue lasts more than ten minutes without any warning notice at 9:37 case 1312',lab,9,40,51,3,Electrical
'an urgent maintenance check is needed because signage for the room is missing in g2 near the main entrance to the space and it interrupts scheduled teaching at 11:31 case 1313',academic,11,79,48,2,Water
'staff were informed that the experiment console does not record readings in g2 while the area is moderately occupied near the main entrance to the space at 13:15 case 1315',academic,13,100,70,4,Lab_Equipment
'a repeated observation is that the nearest water point is not operational in cr202 the water service needs attention after normal troubleshooting was attempted at 14:58 case 1316',academic,14,78,27,2,Water
'during the latest session a spill has made the floor slippery in cs1 and staff assistance has been requested and staff assistance has been requested at 11:50 case 1317',academic,11,73,56,3,Water
'today we noticed that the corridor has a persistent hygiene problem in gym this is a hygiene and cleanliness concern and the issue lasts more than ten minutes at 12:51 case 1318',sports,12,67,55,3,Cleanliness
'during the latest session lights flicker repeatedly during use in reception the electrical supply needs inspection after normal troubleshooting was attempted at 17:34 case 1319',office,17,100,70,1,Electrical
'staff were informed that the experiment console does not record readings in ece-202 and the issue lasts more than ten minutes and the issue lasts more than ten minutes at 11:48 case 1320',lab,11,68,47,1,Lab_Equipment
'please investigate because the campus network drops repeatedly during class in cl3-b the network service is affected after normal troubleshooting was attempted at 12:19 case 1321',lab,12,40,77,2,Network
'a repeated observation is that internet speed falls below a usable level in gh common room the network service is affected and the condition has become more frequent at 9:47 case 1322',hostel,9,55,46,2,Network
'a repeated observation is that the display cable and wall port need repair in cr201 and staff assistance has been requested without any warning notice at 13:45 case 1323',academic,13,72,63,2,Infrastructure
'a repeated observation is that the nearest water point is not operational in gh common room the water service needs attention while the area is moderately occupied at 16:42 case 1324',hostel,16,47,59,1,Water
'a repeated observation is that the display cable and wall port need repair in basketball court and the issue lasts more than ten minutes and the condition has become more frequent at 13:54 case 1327',sports,13,78,70,3,Infrastructure
'today we noticed that seating capacity is insufficient during the meal break in cooler b the food service operation is affected and it interrupts scheduled teaching at 11:44 case 1328',utility,11,89,47,5,Canteen
'during the latest session students cannot authenticate to the wireless network in visitor parking while another campus service remains normal during a regular teaching period at 15:26 case 1332',outdoor,15,66,49,3,Network
'a repeated observation is that the queue extends into the walking area in ece-202 the food service operation is affected and the issue lasts more than ten minutes at 13:08 case 1334',lab,13,40,57,3,Canteen
'an urgent maintenance check is needed because signage for the room is missing in cl3-a the physical infrastructure needs attention while the area is moderately occupied at 16:30 case 1335',lab,16,44,35,2,Infrastructure
'during the latest session water pressure is too low for normal use in h5 corridor 2 while the area is moderately occupied near the main entrance to the space at 8:05 case 1336',hostel,8,85,25,1,Water
'today we noticed that the refill indicator has remained empty in ts11 the water service needs attention and it interrupts scheduled teaching at 8:04 case 1337',academic,8,72,76,3,Water
'today we noticed that network coverage disappears near the back rows in group study while another campus service remains normal after normal troubleshooting was attempted at 15:54 case 1338',library,15,63,51,3,Network
'a repeated observation is that the nearest water point is not operational in gh corridor 1 the water service needs attention and several students are affected at 9:16 case 1339',hostel,9,86,46,4,Water
'today we noticed that ceiling plaster appears loose near the entrance in h4 common room during a regular teaching period and the issue lasts more than ten minutes at 12:23 case 1341',hostel,12,94,43,3,Infrastructure
'an urgent maintenance check is needed because video lectures buffer on the campus connection in h5 common room the network service is affected without any warning notice at 17:45 case 1342',hostel,17,56,66,4,Network
'today we noticed that charging points are unavailable in ece-201 the electrical supply needs inspection without any warning notice at 8:31 case 1343',lab,8,81,53,4,Electrical
'staff were informed that an unattended item is obstructing the walkway in cl15-a campus operations are being disrupted and the issue lasts more than ten minutes at 18:53 case 1344',lab,18,72,42,3,Other
'a repeated observation is that the queue extends into the walking area in food court the food service operation is affected and several students are affected at 10:04 case 1345',food,10,62,46,2,Canteen
'a repeated observation is that a power socket is loose and unsafe in ts18 and staff assistance has been requested although nearby rooms remain usable at 17:56 case 1347',academic,17,69,60,5,Electrical
'please investigate because the campus network drops repeatedly during class in ece-201 and the condition has become more frequent and the issue lasts more than ten minutes at 15:24 case 1348',lab,15,51,28,2,Network
'an urgent maintenance check is needed because pedestrian movement is restricted by stored material in cl1-b and the condition has become more frequent without any warning notice at 8:31 case 1349',lab,8,74,48,2,Other
'for the second time this week the lecture-room screen does not lower correctly in digital area the physical infrastructure needs attention and the condition has become more frequent at 17:08 case 1350',library,17,57,48,2,Infrastructure
'please investigate because several systems freeze during compilation in washroom g and staff assistance has been requested and staff assistance has been requested at 14:38 case 1351',utility,14,71,62,3,Lab_Equipment
'a repeated observation is that a campus service is unavailable without an explanation in cl15-b campus operations are being disrupted although nearby rooms remain usable at 13:25 case 1352',lab,13,72,80,2,Water
'a repeated observation is that the queue extends into the walking area in cl15-b the food service operation is affected although nearby rooms remain usable at 13:02 case 1353',lab,13,45,38,1,Canteen
'today we noticed that seating capacity is insufficient during the meal break in h5 common room the food service operation is affected and several students are affected at 14:06 case 1354',hostel,14,43,59,1,Canteen
'during the latest session students are waiting too long for food service in dining hall the food service operation is affected and the condition has become more frequent at 12:35 case 1355',food,12,47,56,4,Canteen
'students report that several desks have loose or damaged fittings in g6 the physical infrastructure needs attention during a regular teaching period at 14:02 case 1356',academic,14,100,66,1,Infrastructure
'a repeated observation is that internet speed falls below a usable level in ece-202 while the area is moderately occupied during a regular teaching period at 12:51 case 1357',lab,12,73,30,1,Network
'for the second time this week the lecture-room screen does not lower correctly in digital area while another campus service remains normal and several students are affected at 14:03 case 1358',library,14,61,65,3,Infrastructure
'for the second time this week water is collecting beneath the dispenser in counter a the water service needs attention and the condition has become more frequent at 16:57 case 1360',food,16,75,41,4,Water
'for the second time this week the wired connection cannot reach institute services in basketball court near the main entrance to the space after normal troubleshooting was attempted at 11:44 case 1361',sports,11,67,88,4,Network
'for the second time this week the lecture-room screen does not lower correctly in reading hall the physical infrastructure needs attention although nearby rooms remain usable at 17:43 case 1362',library,17,67,47,3,Infrastructure
'during the latest session the common area is overcrowded in h4 corridor 2 campus operations are being disrupted without any warning notice at 17:45 case 1363',hostel,17,94,66,5,Other
'an urgent maintenance check is needed because the lab printer is unavailable to student systems in ece-202 and staff assistance has been requested and the issue lasts more than ten minutes at 10:27 case 1364',lab,10,56,61,3,Lab_Equipment
'please investigate because the ceiling fans are not operating in dining hall the electrical supply needs inspection while another campus service remains normal at 11:13 case 1365',food,11,84,55,3,Electrical
'a repeated observation is that internet speed falls below a usable level in cl22-a the network service is affected and the condition has become more frequent at 12:43 case 1368',lab,12,41,46,3,Network
'a repeated observation is that laboratory equipment reports a calibration error in g2 and several students are affected and it interrupts scheduled teaching at 9:01 case 1370',academic,9,30,62,3,Lab_Equipment
'today we noticed that network coverage disappears near the back rows in g1 the network service is affected and it interrupts scheduled teaching at 10:15 case 1371',academic,10,72,67,5,Network
'staff were informed that dust and litter remain around the workstations in h4 corridor 2 and the condition has become more frequent and the issue lasts more than ten minutes at 10:10 case 1372',hostel,10,45,35,1,Cleanliness
'please investigate because the projector loses its input after a few minutes in cr102 the physical infrastructure needs attention and it interrupts scheduled teaching at 8:33 case 1373',academic,8,90,20,2,Infrastructure
'for the second time this week the wired connection cannot reach institute services in g2 the network service is affected and staff assistance has been requested at 10:51 case 1374',academic,10,58,51,2,Network
'during the latest session the classroom door cannot close safely in cl3-a during a regular teaching period and the condition has become more frequent at 12:15 case 1375',lab,12,72,48,4,Infrastructure
'an urgent maintenance check is needed because a switchboard becomes warm during operation in cs2 the electrical supply needs inspection although nearby rooms remain usable at 15:47 case 1376',academic,15,59,65,4,Electrical
'please investigate because parking congestion is blocking access in reception after normal troubleshooting was attempted while another campus service remains normal at 17:46 case 1377',office,17,65,71,4,Cleanliness
'an urgent maintenance check is needed because pedestrian movement is restricted by stored material in gate 1 campus operations are being disrupted and the condition has become more frequent at 16:46 case 1378',outdoor,16,64,71,1,Other
'during the latest session the workstation cannot boot for the practical in cl1-b laboratory equipment availability is affected after normal troubleshooting was attempted at 17:19 case 1379',lab,17,38,47,3,Lab_Equipment
'a repeated observation is that the queue extends into the walking area in cooler b the food service operation is affected and staff assistance has been requested at 11:03 case 1380',utility,11,60,59,2,Canteen
'during the latest session students cannot authenticate to the wireless network in academic office the network service is affected without any warning notice at 18:51 case 1381',office,18,65,46,2,Network
'staff were informed that dust and litter remain around the workstations in counter a without any warning notice after normal troubleshooting was attempted at 14:57 case 1382',food,14,63,37,4,Cleanliness
'during the latest session the workstation cannot boot for the practical in cr201 laboratory equipment availability is affected and the condition has become more frequent at 11:43 case 1383',academic,11,61,54,1,Lab_Equipment
'a repeated observation is that internet speed falls below a usable level in g1 the network service is affected and the condition has become more frequent at 8:22 case 1385',academic,8,61,84,1,Network
'staff were informed that the experiment console does not record readings in cl3-b and the issue lasts more than ten minutes and the issue lasts more than ten minutes at 13:36 case 1386',lab,13,78,58,3,Lab_Equipment
'today we noticed that ceiling plaster appears loose near the entrance in washroom g although nearby rooms remain usable and the issue lasts more than ten minutes at 15:55 case 1387',utility,15,61,53,2,Infrastructure
'please investigate because the drinking-water dispenser is empty in h4 common room the water service needs attention during a regular teaching period at 16:52 case 1388',hostel,16,76,75,3,Water
'please investigate because several systems freeze during compilation in ts18 laboratory equipment availability is affected while another campus service remains normal at 10:36 case 1389',academic,10,52,68,1,Lab_Equipment
'during the latest session the common area is overcrowded in washroom g while the area is moderately occupied without any warning notice at 9:00 case 1391',utility,9,66,50,1,Other
'today we noticed that charging points are unavailable in h4 corridor 1 near the main entrance to the space while another campus service remains normal at 18:22 case 1392',hostel,18,67,50,4,Electrical
'a repeated observation is that the wash area needs urgent sanitation in basketball court while the area is moderately occupied and the issue lasts more than ten minutes at 17:55 case 1393',sports,17,64,37,4,Cleanliness
'staff were informed that the experiment console does not record readings in h4 corridor 1 laboratory equipment availability is affected and the condition has become more frequent at 18:49 case 1395',hostel,18,47,38,3,Lab_Equipment
'during the latest session students are waiting too long for food service in h5 corridor 1 the food service operation is affected and several students are affected at 8:10 case 1396',hostel,8,58,72,4,Canteen
'a repeated observation is that the nearest water point is not operational in security post the water service needs attention and staff assistance has been requested at 15:02 case 1397',outdoor,15,48,44,3,Water
'a repeated observation is that the display cable and wall port need repair in cooler a the physical infrastructure needs attention without any warning notice at 17:44 case 1398',utility,17,43,60,1,Infrastructure
'students report that the wifi signal is unstable for several devices in g1 after normal troubleshooting was attempted during a regular teaching period at 9:38 case 1400',academic,9,57,39,1,Network
'during the latest session the common area is overcrowded in cl15-a campus operations are being disrupted and several students are affected at 18:30 case 1401',lab,18,46,76,5,Other
'today we noticed that seating capacity is insufficient during the meal break in cl22-b the food service operation is affected after normal troubleshooting was attempted at 16:31 case 1402',lab,16,85,58,4,Canteen
'an urgent maintenance check is needed because a switchboard becomes warm during operation in g2 the electrical supply needs inspection near the main entrance to the space at 11:39 case 1403',academic,11,69,68,4,Electrical
'please investigate because several systems freeze during compilation in academic office laboratory equipment availability is affected although nearby rooms remain usable at 12:20 case 1405',office,12,100,56,1,Lab_Equipment
'a repeated observation is that laboratory equipment reports a calibration error in gym and it interrupts scheduled teaching and several students are affected at 13:51 case 1406',sports,13,49,45,3,Lab_Equipment
'an urgent maintenance check is needed because standing water is creating an unhygienic patch in washroom 1 and staff assistance has been requested and staff assistance has been requested at 16:42 case 1407',utility,16,39,57,3,Cleanliness
'please investigate because several systems freeze during compilation in h4 corridor 2 while another campus service remains normal and staff assistance has been requested at 10:53 case 1408',hostel,10,58,49,5,Lab_Equipment
'today we noticed that charging points are unavailable in ff6 the electrical supply needs inspection and the issue lasts more than ten minutes at 13:27 case 1409',academic,13,69,67,1,Other
'a repeated observation is that the display cable and wall port need repair in student parking after normal troubleshooting was attempted and the condition has become more frequent at 16:01 case 1410',outdoor,16,33,58,2,Infrastructure
'a repeated observation is that a power socket is loose and unsafe in ts11 the electrical supply needs inspection and the condition has become more frequent at 17:30 case 1411',academic,17,61,63,4,Electrical
'an urgent maintenance check is needed because video lectures buffer on the campus connection in h4 common room the network service is affected without any warning notice at 18:25 case 1412',hostel,18,35,59,2,Network
'for the second time this week the cleaning schedule appears to have been missed in cl15-a this is a hygiene and cleanliness concern and several students are affected at 16:27 case 1413',lab,16,54,63,3,Other
'for the second time this week order processing has stopped at one counter in counter a and staff assistance has been requested and it interrupts scheduled teaching at 15:25 case 1414',food,15,25,55,5,Canteen
'please investigate because the campus network drops repeatedly during class in billing counter the network service is affected and several students are affected at 12:02 case 1415',food,12,57,48,2,Network
'please investigate because the projector loses its input after a few minutes in g2 during a regular teaching period after normal troubleshooting was attempted at 12:37 case 1416',academic,12,80,70,3,Infrastructure
'staff were informed that online resources time out during the session in reception and staff assistance has been requested and it interrupts scheduled teaching at 18:37 case 1417',office,18,56,70,4,Network
'for the second time this week the device driver is missing from the workstation in cl3-b laboratory equipment availability is affected and the condition has become more frequent at 15:19 case 1419',lab,15,28,65,2,Lab_Equipment
'for the second time this week the lecture-room screen does not lower correctly in academic office without any warning notice and staff assistance has been requested at 13:19 case 1420',office,13,93,51,2,Infrastructure
'an urgent maintenance check is needed because the lab printer is unavailable to student systems in cr102 laboratory equipment availability is affected after normal troubleshooting was attempted at 16:24 case 1422',academic,16,39,55,2,Lab_Equipment
'please investigate because the drinking-water dispenser is empty in ts18 the water service needs attention while another campus service remains normal at 10:22 case 1423',academic,10,56,38,2,Water
'a repeated observation is that the nearest water point is not operational in group study the water service needs attention and the condition has become more frequent at 14:53 case 1424',library,14,90,45,1,Water
'for the second time this week water is collecting beneath the dispenser in gate 1 during a regular teaching period during a regular teaching period at 15:07 case 1425',outdoor,15,44,57,3,Water
'please investigate because the ceiling fans are not operating in g2 the electrical supply needs inspection while the area is moderately occupied at 14:12 case 1426',academic,14,100,66,3,Electrical
'staff were informed that online resources time out during the session in dining hall without any warning notice and several students are affected at 14:08 case 1427',food,14,76,55,3,Network
'an urgent maintenance check is needed because the lab printer is unavailable to student systems in cl3-a near the main entrance to the space during a regular teaching period at 16:35 case 1428',lab,16,50,48,2,Lab_Equipment
'during the latest session lights flicker repeatedly during use in cs2 the electrical supply needs inspection and the issue lasts more than ten minutes at 17:29 case 1429',academic,17,52,62,3,Electrical
'an urgent maintenance check is needed because the lunch rush is blocking the entrance in cl3-a and the condition has become more frequent and it interrupts scheduled teaching at 17:25 case 1431',lab,17,97,47,5,Canteen
'a repeated observation is that the queue extends into the walking area in gh common room the food service operation is affected near the main entrance to the space at 12:22 case 1434',hostel,12,96,63,2,Canteen
'staff were informed that an electrical panel is making an unusual sound in gh corridor 1 and staff assistance has been requested near the main entrance to the space at 15:25 case 1435',hostel,15,74,36,1,Electrical
'staff were informed that the writing surface is damaged and difficult to use in ts17 after normal troubleshooting was attempted and several students are affected at 15:12 case 1436',academic,15,82,47,1,Infrastructure
'please investigate because the campus network drops repeatedly during class in group study the network service is affected although nearby rooms remain usable at 9:02 case 1437',library,9,93,51,4,Network
'for the second time this week the wired connection cannot reach institute services in backstage the network service is affected although nearby rooms remain usable at 16:48 case 1438',common,16,49,51,4,Network
'an urgent maintenance check is needed because video lectures buffer on the campus connection in gym and it interrupts scheduled teaching without any warning notice at 14:37 case 1439',sports,14,41,45,1,Network
'for the second time this week order processing has stopped at one counter in cl22-a the food service operation is affected while another campus service remains normal at 15:27 case 1440',lab,15,90,56,4,Canteen
'staff were informed that billing and collection lines are merging into one queue in cs2 and staff assistance has been requested and it interrupts scheduled teaching at 14:59 case 1441',academic,14,86,60,1,Canteen
'for the second time this week order processing has stopped at one counter in food court the food service operation is affected although nearby rooms remain usable at 14:23 case 1442',food,14,100,54,4,Canteen
'please investigate because several systems freeze during compilation in cr202 and several students are affected after normal troubleshooting was attempted at 15:42 case 1443',academic,15,38,57,2,Lab_Equipment
'today we noticed that seating capacity is insufficient during the meal break in cl3-b and several students are affected near the main entrance to the space at 8:39 case 1444',lab,8,5,52,1,Canteen
'an urgent maintenance check is needed because the lab printer is unavailable to student systems in basketball court and it interrupts scheduled teaching while another campus service remains normal at 10:23 case 1446',sports,10,68,49,3,Lab_Equipment
'today we noticed that charging points are unavailable in washroom g the electrical supply needs inspection and it interrupts scheduled teaching at 16:39 case 1448',utility,16,51,50,1,Electrical
'a repeated observation is that a power socket is loose and unsafe in h5 corridor 2 near the main entrance to the space and it interrupts scheduled teaching at 16:09 case 1449',hostel,16,56,81,4,Electrical
'students report that water is leaking into the walking area in gym near the main entrance to the space near the main entrance to the space at 18:44 case 1451',sports,18,66,67,2,Water
'please investigate because the drinking-water dispenser is empty in g3 and staff assistance has been requested although nearby rooms remain usable at 15:33 case 1452',academic,15,77,71,2,Water
'an urgent maintenance check is needed because the lab printer is unavailable to student systems in ece-202 laboratory equipment availability is affected and it interrupts scheduled teaching at 17:01 case 1453',lab,17,54,29,3,Lab_Equipment
'staff were informed that an electrical panel is making an unusual sound in security post and the issue lasts more than ten minutes without any warning notice at 16:32 case 1456',outdoor,16,30,74,2,Electrical
'please investigate because the service queue is moving very slowly in cl15-b while the area is moderately occupied and several students are affected at 12:08 case 1458',lab,12,23,37,2,Canteen
'staff were informed that billing and collection lines are merging into one queue in food court the food service operation is affected without any warning notice at 18:23 case 1459',food,18,20,47,1,Canteen
'an urgent maintenance check is needed because the lunch rush is blocking the entrance in visitor parking after normal troubleshooting was attempted near the main entrance to the space at 8:32 case 1460',outdoor,8,41,79,3,Canteen
'students report that only one billing counter is open during the rush in cr102 the food service operation is affected while another campus service remains normal at 16:33 case 1461',academic,16,65,61,2,Canteen
'an urgent maintenance check is needed because the lunch rush is blocking the entrance in gym the food service operation is affected and the issue lasts more than ten minutes at 13:20 case 1462',sports,13,94,64,2,Canteen
'please investigate because several systems freeze during compilation in h5 corridor 2 during a regular teaching period although nearby rooms remain usable at 10:01 case 1463',hostel,10,62,55,1,Lab_Equipment
'during the latest session water pressure is too low for normal use in cr425 the water service needs attention during a regular teaching period at 9:11 case 1464',academic,9,64,81,4,Water
'an urgent maintenance check is needed because a switchboard becomes warm during operation in ts11 and the condition has become more frequent and staff assistance has been requested at 16:51 case 1465',academic,16,71,44,3,Electrical
'for the second time this week water is collecting beneath the dispenser in gym the water service needs attention without any warning notice at 11:48 case 1466',sports,11,57,44,3,Water
'for the second time this week order processing has stopped at one counter in cl15-a the food service operation is affected after normal troubleshooting was attempted at 14:14 case 1467',lab,14,98,61,5,Canteen
'an urgent maintenance check is needed because signage for the room is missing in reception while the area is moderately occupied after normal troubleshooting was attempted at 16:44 case 1468',office,16,66,56,3,Infrastructure
'for the second time this week water is collecting beneath the dispenser in cl1-b during a regular teaching period while the area is moderately occupied at 13:17 case 1469',lab,13,54,66,3,Water
'a repeated observation is that the queue extends into the walking area in gate 1 the food service operation is affected near the main entrance to the space at 12:42 case 1470',outdoor,12,47,66,2,Canteen
'a repeated observation is that the nearest water point is not operational in h4 corridor 2 the water service needs attention after normal troubleshooting was attempted at 9:10 case 1471',hostel,9,66,52,3,Water
'for the second time this week water is collecting beneath the dispenser in backstage the water service needs attention while another campus service remains normal at 13:08 case 1473',common,13,88,49,1,Water
'during the latest session students cannot authenticate to the wireless network in h5 corridor 1 the network service is affected and the condition has become more frequent at 11:23 case 1474',hostel,11,100,64,2,Network
'staff were informed that a tap continues running after it is closed in h4 common room the water service needs attention and staff assistance has been requested at 18:22 case 1475',hostel,18,100,34,2,Water
'an urgent maintenance check is needed because signage for the room is missing in indoor court and several students are affected while another campus service remains normal at 13:05 case 1476',sports,13,58,45,1,Infrastructure
'please investigate because the campus network drops repeatedly during class in cl3-b the network service is affected near the main entrance to the space at 8:19 case 1478',lab,8,77,36,3,Network
'staff were informed that an unattended item is obstructing the walkway in security post while another campus service remains normal during a regular teaching period at 8:30 case 1479',outdoor,8,44,81,1,Other
'today we noticed that multiple computers show storage errors in cl15-a while another campus service remains normal and it interrupts scheduled teaching at 14:47 case 1480',lab,14,34,51,2,Lab_Equipment
'for the second time this week the device driver is missing from the workstation in student parking and several students are affected and several students are affected at 13:02 case 1482',outdoor,13,64,61,5,Lab_Equipment
'students report that waste bins are overflowing into the corridor in cr201 near the main entrance to the space and staff assistance has been requested at 12:55 case 1483',academic,12,85,72,3,Cleanliness
'staff were informed that an unattended item is obstructing the walkway in visitor parking after normal troubleshooting was attempted after normal troubleshooting was attempted at 13:44 case 1484',outdoor,13,70,39,4,Other
'for the second time this week the wired connection cannot reach institute services in ts18 and it interrupts scheduled teaching and staff assistance has been requested at 8:12 case 1485',academic,8,58,43,5,Network
'staff were informed that the writing surface is damaged and difficult to use in h4 corridor 1 without any warning notice although nearby rooms remain usable at 15:08 case 1486',hostel,15,62,83,1,Infrastructure
'today we noticed that charging points are unavailable in cl15-a the electrical supply needs inspection and it interrupts scheduled teaching at 13:26 case 1487',lab,13,100,74,3,Electrical
'students report that a monitor and keyboard are not detected in cr201 laboratory equipment availability is affected without any warning notice at 18:46 case 1488',academic,18,67,47,3,Lab_Equipment
'a repeated observation is that the wash area needs urgent sanitation in h5 common room this is a hygiene and cleanliness concern after normal troubleshooting was attempted at 16:24 case 1489',hostel,16,69,28,1,Cleanliness
'today we noticed that the corridor has a persistent hygiene problem in g5 near the main entrance to the space while another campus service remains normal at 11:45 case 1490',academic,11,81,51,5,Cleanliness
'please investigate because the campus network drops repeatedly during class in cl3-a near the main entrance to the space and staff assistance has been requested at 12:13 case 1492',lab,12,86,36,2,Network
'for the second time this week the wired connection cannot reach institute services in visitor parking the network service is affected and the issue lasts more than ten minutes at 14:12 case 1493',outdoor,14,93,42,2,Network
'staff were informed that an unattended item is obstructing the walkway in cr102 campus operations are being disrupted although nearby rooms remain usable at 17:16 case 1494',academic,17,45,66,4,Other
'for the second time this week the help desk is closed during published hours in indoor court campus operations are being disrupted and it interrupts scheduled teaching at 8:10 case 1495',sports,8,73,63,3,Other
'a repeated observation is that the wash area needs urgent sanitation in cooler a and several students are affected and several students are affected at 8:38 case 1496',utility,8,63,31,3,Cleanliness
'today we noticed that ceiling plaster appears loose near the entrance in cr201 the physical infrastructure needs attention while another campus service remains normal at 14:30 case 1497',academic,14,53,62,3,Infrastructure
'students report that the wifi signal is unstable for several devices in cl22-b and several students are affected without any warning notice at 14:15 case 1498',lab,14,81,80,2,Network
'an urgent maintenance check is needed because signage for the room is missing in cl3-a near the main entrance to the space and the issue lasts more than ten minutes at 14:26 case 1499',lab,14,49,49,2,Infrastructure
'staff were informed that online resources time out during the session in ts12 the network service is affected during a regular teaching period at 15:15 case 1500',academic,15,1,42,4,Network
'students report that water is leaking into the walking area in washroom 1 the water service needs attention and the issue lasts more than ten minutes at 18:57 case 1501',utility,18,84,76,2,Water
'during the latest session the classroom door cannot close safely in gh corridor 1 and the issue lasts more than ten minutes while another campus service remains normal at 15:56 case 1502',hostel,15,56,57,5,Infrastructure
'a repeated observation is that laboratory equipment reports a calibration error in cl3-b and the condition has become more frequent and the condition has become more frequent at 8:23 case 1503',lab,8,59,69,2,Lab_Equipment
'during the latest session students are waiting too long for food service in g6 and the issue lasts more than ten minutes after normal troubleshooting was attempted at 11:18 case 1505',academic,11,29,60,1,Canteen
'staff were informed that a tap continues running after it is closed in backstage without any warning notice and the issue lasts more than ten minutes at 17:17 case 1506',common,17,60,24,2,Water
'during the latest session lights flicker repeatedly during use in gate 1 the electrical supply needs inspection and it interrupts scheduled teaching at 9:52 case 1507',outdoor,9,49,59,2,Electrical
'staff were informed that an electrical panel is making an unusual sound in reception during a regular teaching period while another campus service remains normal at 17:59 case 1508',office,17,48,57,4,Electrical
'please investigate because the projector loses its input after a few minutes in digital area while the area is moderately occupied without any warning notice at 8:34 case 1509',library,8,88,56,4,Infrastructure
'a repeated observation is that a power socket is loose and unsafe in gh common room the electrical supply needs inspection although nearby rooms remain usable at 13:18 case 1510',hostel,13,67,45,1,Electrical
'staff were informed that the writing surface is damaged and difficult to use in h4 corridor 2 after normal troubleshooting was attempted and several students are affected at 14:53 case 1511',hostel,14,85,60,5,Infrastructure
'today we noticed that network coverage disappears near the back rows in digital area the network service is affected without any warning notice at 10:03 case 1512',library,10,68,34,4,Network
'staff were informed that dust and litter remain around the workstations in g5 and staff assistance has been requested after normal troubleshooting was attempted at 17:43 case 1515',academic,17,28,61,3,Cleanliness
'today we noticed that the refill indicator has remained empty in cl3-b the water service needs attention while another campus service remains normal at 13:13 case 1516',lab,13,62,69,2,Water
'an urgent maintenance check is needed because video lectures buffer on the campus connection in indoor court the network service is affected after normal troubleshooting was attempted at 11:57 case 1517',sports,11,65,95,2,Network
'students report that the wifi signal is unstable for several devices in g6 while another campus service remains normal and several students are affected at 14:53 case 1518',academic,14,54,44,1,Network
'today we noticed that seating capacity is insufficient during the meal break in counter a the food service operation is affected after normal troubleshooting was attempted at 9:00 case 1519',food,9,55,57,2,Canteen
'a repeated observation is that a campus service is unavailable without an explanation in cl1-a campus operations are being disrupted while the area is moderately occupied at 9:37 case 1520',lab,9,62,56,3,Other
'please investigate because the campus network drops repeatedly during class in g1 the network service is affected while the area is moderately occupied at 16:41 case 1521',academic,16,48,59,5,Network
'staff were informed that online resources time out during the session in cl1-a the network service is affected although nearby rooms remain usable at 11:30 case 1522',lab,11,79,53,4,Network
'a repeated observation is that the display cable and wall port need repair in gate 1 the physical infrastructure needs attention and it interrupts scheduled teaching at 12:26 case 1523',outdoor,12,72,52,5,Infrastructure
'a repeated observation is that a campus service is unavailable without an explanation in g6 while another campus service remains normal and staff assistance has been requested at 15:00 case 1524',academic,15,40,38,1,Other
'an urgent maintenance check is needed because the lunch rush is blocking the entrance in cooler b after normal troubleshooting was attempted without any warning notice at 13:54 case 1525',utility,13,64,53,3,Canteen
'today we noticed that charging points are unavailable in cr101 the electrical supply needs inspection and several students are affected at 14:52 case 1526',academic,14,67,83,2,Electrical
'a repeated observation is that the wash area needs urgent sanitation in gh common room this is a hygiene and cleanliness concern near the main entrance to the space at 8:03 case 1527',hostel,8,41,61,4,Cleanliness
'students report that a monitor and keyboard are not detected in cr202 while the area is moderately occupied although nearby rooms remain usable at 14:43 case 1529',academic,14,76,52,2,Lab_Equipment
'for the second time this week the lecture-room screen does not lower correctly in ts11 the physical infrastructure needs attention and staff assistance has been requested at 13:34 case 1531',academic,13,43,48,2,Infrastructure
'today we noticed that the corridor has a persistent hygiene problem in washroom 1 during a regular teaching period during a regular teaching period at 9:43 case 1532',utility,9,74,72,3,Cleanliness
'for the second time this week the wired connection cannot reach institute services in cooler b the network service is affected and several students are affected at 12:10 case 1534',utility,12,75,58,2,Water
'for the second time this week the wired connection cannot reach institute services in gh corridor 1 the network service is affected after normal troubleshooting was attempted at 17:53 case 1535',hostel,17,55,47,5,Network
'for the second time this week order processing has stopped at one counter in group study and several students are affected and the issue lasts more than ten minutes at 18:27 case 1536',library,18,34,70,5,Canteen
'during the latest session lights flicker repeatedly during use in cooler a the electrical supply needs inspection while the area is moderately occupied at 17:17 case 1537',utility,17,33,56,2,Electrical
'students report that a monitor and keyboard are not detected in dining hall laboratory equipment availability is affected and the issue lasts more than ten minutes at 11:46 case 1538',food,11,100,95,2,Lab_Equipment
'please investigate because the area has not been cleaned since the morning in gate 1 this is a hygiene and cleanliness concern and the condition has become more frequent at 15:22 case 1539',outdoor,15,56,54,2,Cleanliness
'a repeated observation is that a campus service is unavailable without an explanation in h4 common room campus operations are being disrupted near the main entrance to the space at 11:12 case 1540',hostel,11,67,61,3,Other
'for the second time this week order processing has stopped at one counter in dining hall and staff assistance has been requested and the condition has become more frequent at 13:31 case 1541',food,13,59,39,1,Canteen
'staff were informed that online resources time out during the session in visitor parking the network service is affected and several students are affected at 8:45 case 1543',outdoor,8,74,85,3,Network
'for the second time this week the device driver is missing from the workstation in h4 corridor 1 laboratory equipment availability is affected while another campus service remains normal at 9:26 case 1544',hostel,9,29,55,4,Lab_Equipment
'for the second time this week the ventilation fan does not start in gh corridor 1 the electrical supply needs inspection and the condition has become more frequent at 15:28 case 1545',hostel,15,52,58,2,Cleanliness
'for the second time this week water is collecting beneath the dispenser in ece-201 the water service needs attention without any warning notice at 16:41 case 1547',lab,16,71,49,3,Water
'today we noticed that charging points are unavailable in h4 common room the electrical supply needs inspection and staff assistance has been requested at 10:49 case 1549',hostel,10,48,46,3,Electrical
'students report that several desks have loose or damaged fittings in g5 and staff assistance has been requested and staff assistance has been requested at 17:47 case 1551',academic,17,68,51,2,Infrastructure
'for the second time this week the wired connection cannot reach institute services in ece-202 and the condition has become more frequent while another campus service remains normal at 12:04 case 1552',lab,12,82,66,5,Network
'a repeated observation is that a campus service is unavailable without an explanation in cs2 without any warning notice without any warning notice at 13:22 case 1553',academic,13,44,47,1,Other
'please investigate because the ceiling fans are not operating in ece-201 and the issue lasts more than ten minutes although nearby rooms remain usable at 11:31 case 1554',lab,11,56,59,3,Electrical
'staff were informed that billing and collection lines are merging into one queue in counter a the food service operation is affected near the main entrance to the space at 12:52 case 1555',food,12,73,79,2,Canteen
'staff were informed that the writing surface is damaged and difficult to use in ts12 near the main entrance to the space and several students are affected at 16:27 case 1556',academic,16,35,53,2,Infrastructure
'a repeated observation is that the nearest water point is not operational in washroom g and it interrupts scheduled teaching while another campus service remains normal at 17:39 case 1557',utility,17,52,65,1,Water
'an urgent maintenance check is needed because video lectures buffer on the campus connection in g2 and the issue lasts more than ten minutes during a regular teaching period at 13:45 case 1559',academic,13,87,53,1,Network
'please investigate because the campus network drops repeatedly during class in gate 1 and the issue lasts more than ten minutes and the condition has become more frequent at 14:54 case 1560',outdoor,14,70,72,3,Network
'today we noticed that charging points are unavailable in counter a while the area is moderately occupied and the condition has become more frequent at 11:44 case 1561',food,11,59,40,3,Electrical
'staff were informed that online resources time out during the session in cl22-a during a regular teaching period and the issue lasts more than ten minutes at 12:43 case 1562',lab,12,74,71,2,Network
'a repeated observation is that internet speed falls below a usable level in visitor parking the network service is affected and the issue lasts more than ten minutes at 17:11 case 1563',outdoor,17,29,51,2,Network
'a repeated observation is that the queue extends into the walking area in reading hall and the issue lasts more than ten minutes and the issue lasts more than ten minutes at 12:35 case 1564',library,12,62,40,2,Canteen
'during the latest session a spill has made the floor slippery in washroom g this is a hygiene and cleanliness concern without any warning notice at 16:14 case 1566',utility,16,24,75,1,Lab_Equipment
'a repeated observation is that a campus service is unavailable without an explanation in ece-201 and staff assistance has been requested while the area is moderately occupied at 13:44 case 1567',lab,13,61,50,1,Other
'today we noticed that charging points are unavailable in gh corridor 1 after normal troubleshooting was attempted although nearby rooms remain usable at 11:45 case 1568',hostel,11,98,61,3,Electrical
'an urgent maintenance check is needed because standing water is creating an unhygienic patch in cl3-b near the main entrance to the space while the area is moderately occupied at 10:09 case 1569',lab,10,54,34,2,Cleanliness
'students report that several desks have loose or damaged fittings in backstage during a regular teaching period near the main entrance to the space at 11:30 case 1570',common,11,70,35,1,Infrastructure
'students report that several desks have loose or damaged fittings in ts17 while another campus service remains normal and the condition has become more frequent at 16:34 case 1572',academic,16,50,67,3,Infrastructure
'during the latest session students are waiting too long for food service in cooler b the food service operation is affected and several students are affected at 10:20 case 1573',utility,10,44,42,5,Canteen
'for the second time this week the lecture-room screen does not lower correctly in cooler b and staff assistance has been requested during a regular teaching period at 13:44 case 1574',utility,13,35,62,1,Infrastructure
'please investigate because the area has not been cleaned since the morning in ts12 this is a hygiene and cleanliness concern while the area is moderately occupied at 11:52 case 1575',academic,11,51,32,2,Cleanliness
'an urgent maintenance check is needed because the lunch rush is blocking the entrance in main hall the food service operation is affected and staff assistance has been requested at 11:59 case 1576',common,11,83,64,2,Canteen
'staff were informed that billing and collection lines are merging into one queue in reading hall the food service operation is affected although nearby rooms remain usable at 18:17 case 1577',library,18,68,81,4,Canteen
'a repeated observation is that internet speed falls below a usable level in ts12 and staff assistance has been requested and several students are affected at 11:54 case 1578',academic,11,73,58,3,Network
'staff were informed that the experiment console does not record readings in cr425 although nearby rooms remain usable and it interrupts scheduled teaching at 15:58 case 1579',academic,15,52,32,5,Lab_Equipment
'a repeated observation is that the nearest water point is not operational in cooler a the water service needs attention after normal troubleshooting was attempted at 18:01 case 1580',utility,18,86,77,1,Water
'please investigate because the ceiling fans are not operating in cr201 the electrical supply needs inspection without any warning notice at 14:22 case 1581',academic,14,62,49,5,Electrical
'please investigate because the projector loses its input after a few minutes in washroom g the physical infrastructure needs attention while another campus service remains normal at 13:43 case 1582',utility,13,44,54,2,Infrastructure
'for the second time this week the ventilation fan does not start in h4 corridor 2 the electrical supply needs inspection although nearby rooms remain usable at 11:45 case 1583',hostel,11,89,49,5,Electrical
'today we noticed that network coverage disappears near the back rows in h5 common room the network service is affected without any warning notice at 10:50 case 1584',hostel,10,43,51,2,Network
'a repeated observation is that a campus service is unavailable without an explanation in basketball court and it interrupts scheduled teaching and the condition has become more frequent at 11:31 case 1585',sports,11,59,72,3,Other
'an urgent maintenance check is needed because signage for the room is missing in student parking and staff assistance has been requested and the issue lasts more than ten minutes at 10:41 case 1587',outdoor,10,69,79,1,Infrastructure
'today we noticed that seating capacity is insufficient during the meal break in dining hall during a regular teaching period although nearby rooms remain usable at 12:06 case 1588',food,12,59,63,4,Canteen
'today we noticed that the corridor has a persistent hygiene problem in billing counter and several students are affected after normal troubleshooting was attempted at 9:38 case 1589',food,9,76,75,3,Cleanliness
'an urgent maintenance check is needed because video lectures buffer on the campus connection in cr202 and staff assistance has been requested without any warning notice at 17:38 case 1590',academic,17,44,45,1,Network
'an urgent maintenance check is needed because signage for the room is missing in g2 the physical infrastructure needs attention while the area is moderately occupied at 18:04 case 1591',academic,18,85,39,2,Infrastructure
'an urgent maintenance check is needed because video lectures buffer on the campus connection in cs2 the network service is affected and the condition has become more frequent at 15:20 case 1593',academic,15,100,43,4,Network
'a repeated observation is that the queue extends into the walking area in ff6 while the area is moderately occupied although nearby rooms remain usable at 8:01 case 1594',academic,8,71,22,4,Canteen
'during the latest session students cannot authenticate to the wireless network in student parking and the issue lasts more than ten minutes and the condition has become more frequent at 14:17 case 1595',outdoor,14,61,75,2,Network
'today we noticed that seating capacity is insufficient during the meal break in g1 without any warning notice after normal troubleshooting was attempted at 11:12 case 1596',academic,11,88,34,3,Canteen
'students report that the wifi signal is unstable for several devices in gym the network service is affected near the main entrance to the space at 11:27 case 1597',sports,11,90,57,1,Network
'an urgent maintenance check is needed because the lunch rush is blocking the entrance in ece-201 and several students are affected near the main entrance to the space at 12:46 case 1598',lab,12,64,79,3,Canteen
'staff were informed that the writing surface is damaged and difficult to use in cs1 and it interrupts scheduled teaching and several students are affected at 9:43 case 1599',academic,9,83,95,3,Infrastructure
'staff were informed that the writing surface is damaged and difficult to use in security post and staff assistance has been requested and the issue lasts more than ten minutes at 16:14 case 1601',outdoor,16,75,58,2,Infrastructure
'for the second time this week order processing has stopped at one counter in cr425 the food service operation is affected and several students are affected at 8:42 case 1602',academic,8,55,43,5,Canteen
'during the latest session a spill has made the floor slippery in ts18 this is a hygiene and cleanliness concern and the issue lasts more than ten minutes at 17:08 case 1604',academic,17,58,92,4,Cleanliness
'during the latest session lights flicker repeatedly during use in cr202 the electrical supply needs inspection near the main entrance to the space at 17:58 case 1605',academic,17,89,57,2,Electrical
'staff were informed that the writing surface is damaged and difficult to use in g2 the physical infrastructure needs attention after normal troubleshooting was attempted at 13:54 case 1607',academic,13,30,60,2,Infrastructure
'please investigate because parking congestion is blocking access in ts17 campus operations are being disrupted without any warning notice at 8:26 case 1608',academic,8,28,23,4,Other
'today we noticed that the corridor has a persistent hygiene problem in basketball court this is a hygiene and cleanliness concern during a regular teaching period at 16:52 case 1609',sports,16,51,38,2,Cleanliness
'students report that directional signage is unclear for new students in security post campus operations are being disrupted and the condition has become more frequent at 14:33 case 1610',outdoor,14,56,59,4,Other
'an urgent maintenance check is needed because the filtration unit shows a service warning in washroom 1 and the condition has become more frequent while another campus service remains normal at 16:24 case 1611',utility,16,63,36,1,Water
'an urgent maintenance check is needed because the lunch rush is blocking the entrance in counter a the food service operation is affected and several students are affected at 18:53 case 1613',food,18,67,56,4,Canteen
'students report that the wifi signal is unstable for several devices in cooler b the network service is affected and it interrupts scheduled teaching at 18:32 case 1614',utility,18,51,68,4,Network
'staff were informed that the experiment console does not record readings in cs2 laboratory equipment availability is affected near the main entrance to the space at 12:45 case 1615',academic,12,89,59,2,Lab_Equipment
'an urgent maintenance check is needed because the filtration unit shows a service warning in h4 corridor 2 the water service needs attention while the area is moderately occupied at 13:00 case 1616',hostel,13,70,52,2,Water
'please investigate because the service queue is moving very slowly in counter a during a regular teaching period while another campus service remains normal at 13:54 case 1617',food,13,95,63,1,Canteen
'today we noticed that the notice board contains outdated information in academic office during a regular teaching period without any warning notice at 12:38 case 1618',office,12,73,57,5,Other
'for the second time this week water is collecting beneath the dispenser in g3 the water service needs attention after normal troubleshooting was attempted at 18:30 case 1619',academic,18,70,66,5,Water
'during the latest session lights flicker repeatedly during use in cr101 the electrical supply needs inspection and staff assistance has been requested at 14:47 case 1620',academic,14,66,56,3,Electrical
'during the latest session students cannot authenticate to the wireless network in reception near the main entrance to the space although nearby rooms remain usable at 12:28 case 1621',office,12,80,41,1,Network
'a repeated observation is that the nearest water point is not operational in cl3-a the water service needs attention although nearby rooms remain usable at 14:37 case 1622',lab,14,75,47,1,Water
'for the second time this week the wired connection cannot reach institute services in cs1 without any warning notice after normal troubleshooting was attempted at 17:25 case 1623',academic,17,76,77,2,Network
'for the second time this week the wired connection cannot reach institute services in cl15-b and the issue lasts more than ten minutes and the condition has become more frequent at 18:07 case 1624',lab,18,22,58,4,Network
'an urgent maintenance check is needed because video lectures buffer on the campus connection in cs1 without any warning notice and staff assistance has been requested at 18:06 case 1626',academic,18,40,71,1,Network
'today we noticed that the corridor has a persistent hygiene problem in g6 this is a hygiene and cleanliness concern and several students are affected at 16:24 case 1627',academic,16,73,44,1,Canteen
'during the latest session the classroom door cannot close safely in cl15-a the physical infrastructure needs attention and it interrupts scheduled teaching at 14:37 case 1628',lab,14,76,42,1,Infrastructure
'students report that water is leaking into the walking area in cl15-a the water service needs attention while the area is moderately occupied at 9:53 case 1629',lab,9,100,76,2,Water
'today we noticed that multiple computers show storage errors in cr202 laboratory equipment availability is affected during a regular teaching period at 15:53 case 1631',academic,15,30,30,1,Lab_Equipment
'students report that a monitor and keyboard are not detected in ts17 while the area is moderately occupied and several students are affected at 9:32 case 1632',academic,9,51,45,2,Lab_Equipment
'today we noticed that multiple computers show storage errors in h4 corridor 1 laboratory equipment availability is affected after normal troubleshooting was attempted at 17:49 case 1634',hostel,17,34,71,1,Lab_Equipment
'please investigate because the service queue is moving very slowly in ts12 the food service operation is affected while another campus service remains normal at 18:51 case 1635',academic,18,35,46,1,Canteen
'please investigate because the drinking-water dispenser is empty in cr102 the water service needs attention and the issue lasts more than ten minutes at 9:40 case 1636',academic,9,49,59,3,Water
'today we noticed that network coverage disappears near the back rows in gate 1 the network service is affected while another campus service remains normal at 16:32 case 1637',outdoor,16,83,34,4,Network
'staff were informed that online resources time out during the session in cl1-b the network service is affected during a regular teaching period at 10:43 case 1638',lab,10,62,38,2,Network
'an urgent maintenance check is needed because signage for the room is missing in academic office and several students are affected and several students are affected at 10:07 case 1640',office,10,65,71,2,Infrastructure
'please investigate because parking congestion is blocking access in cl3-a campus operations are being disrupted without any warning notice at 14:20 case 1641',lab,14,100,46,2,Other
'today we noticed that the corridor has a persistent hygiene problem in cl3-a this is a hygiene and cleanliness concern near the main entrance to the space at 13:21 case 1642',lab,13,39,57,5,Cleanliness
'during the latest session the workstation cannot boot for the practical in cr102 and staff assistance has been requested while the area is moderately occupied at 8:02 case 1643',academic,8,62,56,2,Lab_Equipment
'a repeated observation is that the nearest water point is not operational in cooler a without any warning notice during a regular teaching period at 10:07 case 1644',utility,10,47,71,2,Water
'today we noticed that the corridor has a persistent hygiene problem in ff6 this is a hygiene and cleanliness concern although nearby rooms remain usable at 13:29 case 1645',academic,13,80,56,4,Cleanliness
'today we noticed that the refill indicator has remained empty in h5 corridor 2 the water service needs attention and the issue lasts more than ten minutes at 16:35 case 1646',hostel,16,70,78,2,Water
'an urgent maintenance check is needed because a switchboard becomes warm during operation in g5 the electrical supply needs inspection without any warning notice at 16:27 case 1649',academic,16,84,81,5,Electrical
'for the second time this week the wired connection cannot reach institute services in g1 after normal troubleshooting was attempted although nearby rooms remain usable at 9:14 case 1650',academic,9,52,47,3,Network
'students report that waste bins are overflowing into the corridor in cl3-a without any warning notice near the main entrance to the space at 9:14 case 1651',lab,9,100,60,2,Cleanliness
'a repeated observation is that a campus service is unavailable without an explanation in g1 without any warning notice after normal troubleshooting was attempted at 11:19 case 1652',academic,11,53,75,3,Network
'today we noticed that charging points are unavailable in billing counter while the area is moderately occupied and staff assistance has been requested at 15:01 case 1653',food,15,58,33,3,Electrical
'for the second time this week the lecture-room screen does not lower correctly in washroom 1 and it interrupts scheduled teaching near the main entrance to the space at 12:08 case 1654',utility,12,31,40,1,Infrastructure
'a repeated observation is that the queue extends into the walking area in gh common room the food service operation is affected and it interrupts scheduled teaching at 13:48 case 1655',hostel,13,65,64,1,Canteen
'today we noticed that network coverage disappears near the back rows in g5 the network service is affected and staff assistance has been requested at 17:46 case 1656',academic,17,83,57,1,Network
'for the second time this week the cleaning schedule appears to have been missed in cl22-a this is a hygiene and cleanliness concern while another campus service remains normal at 12:07 case 1657',lab,12,66,27,3,Cleanliness
'an urgent maintenance check is needed because video lectures buffer on the campus connection in ts18 and the condition has become more frequent although nearby rooms remain usable at 17:56 case 1658',academic,17,39,61,3,Network
'an urgent maintenance check is needed because the lab printer is unavailable to student systems in cr102 and the issue lasts more than ten minutes after normal troubleshooting was attempted at 10:43 case 1659',academic,10,53,44,5,Lab_Equipment
'please investigate because the projector loses its input after a few minutes in gate 1 and it interrupts scheduled teaching without any warning notice at 12:31 case 1660',outdoor,12,93,54,4,Infrastructure
'a repeated observation is that internet speed falls below a usable level in g2 the network service is affected while the area is moderately occupied at 9:42 case 1661',academic,9,65,42,5,Network
'an urgent maintenance check is needed because video lectures buffer on the campus connection in billing counter the network service is affected after normal troubleshooting was attempted at 17:14 case 1662',food,17,59,28,3,Network
'for the second time this week the wired connection cannot reach institute services in cr425 without any warning notice and staff assistance has been requested at 14:07 case 1663',academic,14,73,62,3,Network
'today we noticed that charging points are unavailable in washroom 1 the electrical supply needs inspection and staff assistance has been requested at 16:08 case 1665',utility,16,87,53,1,Electrical
'for the second time this week the lecture-room screen does not lower correctly in h4 corridor 1 the physical infrastructure needs attention near the main entrance to the space at 18:09 case 1666',hostel,18,71,69,5,Infrastructure
'an urgent maintenance check is needed because pedestrian movement is restricted by stored material in gate 1 and several students are affected after normal troubleshooting was attempted at 18:16 case 1667',outdoor,18,47,66,3,Other
'an urgent maintenance check is needed because the lab printer is unavailable to student systems in washroom 1 laboratory equipment availability is affected and the condition has become more frequent at 16:51 case 1669',utility,16,45,61,4,Lab_Equipment
'students report that waste bins are overflowing into the corridor in h4 corridor 1 and the issue lasts more than ten minutes and staff assistance has been requested at 16:24 case 1670',hostel,16,71,67,3,Cleanliness
'today we noticed that seating capacity is insufficient during the meal break in cr202 the food service operation is affected during a regular teaching period at 12:28 case 1671',academic,12,51,62,2,Canteen
'staff were informed that an electrical panel is making an unusual sound in cs1 the electrical supply needs inspection although nearby rooms remain usable at 12:17 case 1672',academic,12,29,49,2,Electrical
'for the second time this week water is collecting beneath the dispenser in gh corridor 1 near the main entrance to the space while the area is moderately occupied at 10:03 case 1674',hostel,10,53,52,3,Water
'an urgent maintenance check is needed because pedestrian movement is restricted by stored material in cl15-b campus operations are being disrupted during a regular teaching period at 16:46 case 1675',lab,16,49,64,2,Other
'staff were informed that billing and collection lines are merging into one queue in ts11 the food service operation is affected near the main entrance to the space at 13:06 case 1676',academic,13,100,53,2,Canteen
'students report that directional signage is unclear for new students in cr101 campus operations are being disrupted without any warning notice at 10:30 case 1677',academic,10,63,63,3,Other
'for the second time this week water is collecting beneath the dispenser in gym after normal troubleshooting was attempted while another campus service remains normal at 12:20 case 1678',sports,12,58,51,2,Water
'today we noticed that charging points are unavailable in cl15-b without any warning notice and the condition has become more frequent at 15:23 case 1679',lab,15,40,58,2,Electrical
'please investigate because the area has not been cleaned since the morning in cr202 while another campus service remains normal while another campus service remains normal at 17:34 case 1680',academic,17,62,62,1,Cleanliness
'an urgent maintenance check is needed because signage for the room is missing in cr102 and the condition has become more frequent while the area is moderately occupied at 13:58 case 1682',academic,13,91,38,4,Infrastructure
'for the second time this week the lecture-room screen does not lower correctly in ts12 and several students are affected although nearby rooms remain usable at 13:15 case 1683',academic,13,53,47,4,Infrastructure
'for the second time this week order processing has stopped at one counter in ts18 the food service operation is affected and the condition has become more frequent at 14:37 case 1684',academic,14,54,52,4,Canteen
'for the second time this week the lecture-room screen does not lower correctly in reception the physical infrastructure needs attention after normal troubleshooting was attempted at 16:08 case 1685',office,16,55,39,5,Infrastructure
'today we noticed that network coverage disappears near the back rows in g1 and the condition has become more frequent while the area is moderately occupied at 18:36 case 1686',academic,18,61,20,3,Network
'students report that waste bins are overflowing into the corridor in cooler b this is a hygiene and cleanliness concern while another campus service remains normal at 14:55 case 1687',utility,14,64,44,4,Cleanliness
'during the latest session students cannot authenticate to the wireless network in g2 and the condition has become more frequent and the issue lasts more than ten minutes at 11:57 case 1688',academic,11,100,95,4,Network
'students report that several desks have loose or damaged fittings in g3 although nearby rooms remain usable during a regular teaching period at 12:40 case 1689',academic,12,70,62,2,Infrastructure
'a repeated observation is that the wash area needs urgent sanitation in cr201 and staff assistance has been requested during a regular teaching period at 17:20 case 1690',academic,17,87,40,2,Cleanliness
'please investigate because the campus network drops repeatedly during class in reception without any warning notice and staff assistance has been requested at 16:10 case 1692',office,16,47,57,1,Network
'a repeated observation is that a campus service is unavailable without an explanation in cl15-a while another campus service remains normal while another campus service remains normal at 17:03 case 1693',lab,17,95,39,3,Other
'for the second time this week the help desk is closed during published hours in ts17 campus operations are being disrupted and the issue lasts more than ten minutes at 18:53 case 1694',academic,18,37,79,3,Other
'please investigate because the projector loses its input after a few minutes in cr101 and staff assistance has been requested and it interrupts scheduled teaching at 17:39 case 1695',academic,17,66,37,2,Electrical
'a repeated observation is that the wash area needs urgent sanitation in gate 1 during a regular teaching period after normal troubleshooting was attempted at 11:58 case 1696',outdoor,11,59,79,1,Cleanliness
'a repeated observation is that a power socket is loose and unsafe in billing counter the electrical supply needs inspection and staff assistance has been requested at 9:59 case 1697',food,9,94,20,1,Electrical
'a repeated observation is that the wash area needs urgent sanitation in ts12 this is a hygiene and cleanliness concern while the area is moderately occupied at 16:15 case 1698',academic,16,66,50,2,Cleanliness
'for the second time this week water is collecting beneath the dispenser in gh common room the water service needs attention and staff assistance has been requested at 11:45 case 1699',hostel,11,80,60,2,Water
'today we noticed that ceiling plaster appears loose near the entrance in g1 the physical infrastructure needs attention and it interrupts scheduled teaching at 11:06 case 1701',academic,11,79,60,2,Infrastructure
'students report that only one billing counter is open during the rush in cr202 while the area is moderately occupied without any warning notice at 17:21 case 1702',academic,17,64,94,5,Canteen
'during the latest session the workstation cannot boot for the practical in cl1-b and several students are affected without any warning notice at 8:03 case 1703',lab,8,66,45,1,Lab_Equipment
'a repeated observation is that a power socket is loose and unsafe in g2 the electrical supply needs inspection and it interrupts scheduled teaching at 12:36 case 1704',academic,12,80,44,2,Electrical
'a repeated observation is that a campus service is unavailable without an explanation in counter a campus operations are being disrupted and it interrupts scheduled teaching at 15:23 case 1705',food,15,71,63,3,Other
'during the latest session water pressure is too low for normal use in indoor court the water service needs attention and the issue lasts more than ten minutes at 8:47 case 1706',sports,8,73,47,5,Water
'for the second time this week the lecture-room screen does not lower correctly in h4 common room the physical infrastructure needs attention and the condition has become more frequent at 18:54 case 1707',hostel,18,68,59,2,Infrastructure
'today we noticed that the notice board contains outdated information in counter a and several students are affected after normal troubleshooting was attempted at 18:39 case 1708',food,18,63,53,3,Other
'a repeated observation is that the display cable and wall port need repair in gym the physical infrastructure needs attention and staff assistance has been requested at 13:02 case 1709',sports,13,100,56,4,Infrastructure
'staff were informed that online resources time out during the session in cl1-b the network service is affected near the main entrance to the space at 11:56 case 1710',lab,11,76,53,2,Network
'a repeated observation is that a power socket is loose and unsafe in security post the electrical supply needs inspection without any warning notice at 17:10 case 1711',outdoor,17,43,44,4,Electrical
'for the second time this week the ventilation fan does not start in cl1-b the electrical supply needs inspection and the condition has become more frequent at 17:21 case 1712',lab,17,51,78,2,Electrical
'a repeated observation is that laboratory equipment reports a calibration error in h4 corridor 2 near the main entrance to the space and several students are affected at 11:45 case 1713',hostel,11,61,72,5,Lab_Equipment
'for the second time this week the wired connection cannot reach institute services in cl3-b the network service is affected and staff assistance has been requested at 14:50 case 1714',lab,14,43,69,3,Network
'an urgent maintenance check is needed because pedestrian movement is restricted by stored material in cl3-a and the issue lasts more than ten minutes and the issue lasts more than ten minutes at 16:23 case 1715',lab,16,72,56,3,Other
'during the latest session the workstation cannot boot for the practical in cl15-a laboratory equipment availability is affected and the issue lasts more than ten minutes at 14:03 case 1716',lab,14,72,66,4,Lab_Equipment
'a repeated observation is that internet speed falls below a usable level in reading hall the network service is affected and it interrupts scheduled teaching at 9:59 case 1717',library,9,59,75,1,Network
'an urgent maintenance check is needed because pedestrian movement is restricted by stored material in g5 campus operations are being disrupted and the condition has become more frequent at 9:32 case 1718',academic,9,29,34,5,Other
'a repeated observation is that the display cable and wall port need repair in cr102 the physical infrastructure needs attention after normal troubleshooting was attempted at 16:24 case 1720',academic,16,40,70,1,Infrastructure
'during the latest session students are waiting too long for food service in g2 and the condition has become more frequent during a regular teaching period at 15:25 case 1721',academic,15,78,70,3,Canteen
'a repeated observation is that laboratory equipment reports a calibration error in gh corridor 1 while the area is moderately occupied and staff assistance has been requested at 13:37 case 1722',hostel,13,71,76,1,Lab_Equipment
'a repeated observation is that the display cable and wall port need repair in reception the physical infrastructure needs attention during a regular teaching period at 18:53 case 1723',office,18,78,64,1,Infrastructure
'today we noticed that ceiling plaster appears loose near the entrance in cl22-b the physical infrastructure needs attention and several students are affected at 16:36 case 1724',lab,16,56,84,4,Infrastructure
'students report that several desks have loose or damaged fittings in h4 corridor 2 the physical infrastructure needs attention while the area is moderately occupied at 9:10 case 1726',hostel,9,64,61,2,Electrical
'today we noticed that seating capacity is insufficient during the meal break in student parking after normal troubleshooting was attempted while another campus service remains normal at 17:04 case 1727',outdoor,17,59,57,5,Canteen
'an urgent maintenance check is needed because signage for the room is missing in group study the physical infrastructure needs attention although nearby rooms remain usable at 11:28 case 1729',library,11,83,52,4,Infrastructure
'a repeated observation is that a campus service is unavailable without an explanation in basketball court near the main entrance to the space and several students are affected at 14:36 case 1730',sports,14,84,49,3,Other
'an urgent maintenance check is needed because video lectures buffer on the campus connection in backstage the network service is affected near the main entrance to the space at 15:09 case 1731',common,15,37,66,2,Network
'for the second time this week the cleaning schedule appears to have been missed in gym and staff assistance has been requested during a regular teaching period at 16:33 case 1733',sports,16,14,59,5,Cleanliness
'during the latest session students are waiting too long for food service in h4 corridor 2 near the main entrance to the space and the issue lasts more than ten minutes at 11:35 case 1735',hostel,11,82,64,4,Canteen
'please investigate because the campus network drops repeatedly during class in cr425 and the condition has become more frequent and several students are affected at 11:55 case 1736',academic,11,53,48,4,Network
'students report that a monitor and keyboard are not detected in ece-202 laboratory equipment availability is affected during a regular teaching period at 10:24 case 1737',lab,10,76,66,4,Infrastructure
'students report that directional signage is unclear for new students in h5 corridor 1 campus operations are being disrupted and the issue lasts more than ten minutes at 14:29 case 1738',hostel,14,68,63,2,Other
'please investigate because the projector loses its input after a few minutes in student parking the physical infrastructure needs attention while the area is moderately occupied at 11:31 case 1740',outdoor,11,93,55,4,Infrastructure
'during the latest session students cannot authenticate to the wireless network in billing counter during a regular teaching period while another campus service remains normal at 14:42 case 1741',food,14,89,57,3,Network
'today we noticed that the notice board contains outdated information in visitor parking and the issue lasts more than ten minutes near the main entrance to the space at 17:52 case 1742',outdoor,17,43,67,2,Other
'staff were informed that online resources time out during the session in ece-202 and the condition has become more frequent after normal troubleshooting was attempted at 16:46 case 1743',lab,16,46,40,4,Network
'staff were informed that the experiment console does not record readings in h5 corridor 1 laboratory equipment availability is affected while the area is moderately occupied at 10:38 case 1745',hostel,10,1,72,4,Lab_Equipment
'students report that a monitor and keyboard are not detected in h5 corridor 1 laboratory equipment availability is affected and staff assistance has been requested at 12:28 case 1747',hostel,12,65,43,2,Lab_Equipment
'staff were informed that the experiment console does not record readings in ece-201 laboratory equipment availability is affected during a regular teaching period at 8:32 case 1749',lab,8,100,56,1,Lab_Equipment
'staff were informed that the experiment console does not record readings in g6 laboratory equipment availability is affected during a regular teaching period at 11:30 case 1750',academic,11,61,27,3,Lab_Equipment
'during the latest session lights flicker repeatedly during use in cr201 the electrical supply needs inspection while another campus service remains normal at 17:11 case 1751',academic,17,58,59,2,Electrical
'for the second time this week the lecture-room screen does not lower correctly in group study while another campus service remains normal during a regular teaching period at 16:25 case 1752',library,16,59,62,3,Infrastructure
'for the second time this week the device driver is missing from the workstation in h5 corridor 1 and several students are affected without any warning notice at 11:15 case 1753',hostel,11,76,57,4,Lab_Equipment
'a repeated observation is that the display cable and wall port need repair in cl22-a after normal troubleshooting was attempted after normal troubleshooting was attempted at 17:11 case 1754',lab,17,37,41,4,Network
'today we noticed that ceiling plaster appears loose near the entrance in g3 and the issue lasts more than ten minutes without any warning notice at 15:54 case 1755',academic,15,100,63,4,Infrastructure
'please investigate because several systems freeze during compilation in academic office during a regular teaching period while another campus service remains normal at 18:19 case 1756',office,18,59,20,3,Lab_Equipment
'during the latest session the workstation cannot boot for the practical in gym during a regular teaching period although nearby rooms remain usable at 16:27 case 1757',sports,16,55,54,3,Lab_Equipment
'today we noticed that network coverage disappears near the back rows in main hall the network service is affected and the condition has become more frequent at 12:57 case 1758',common,12,99,34,5,Network
'students report that several desks have loose or damaged fittings in g6 the physical infrastructure needs attention while another campus service remains normal at 13:02 case 1762',academic,13,34,38,2,Infrastructure
'today we noticed that the corridor has a persistent hygiene problem in ts18 this is a hygiene and cleanliness concern while another campus service remains normal at 17:36 case 1763',academic,17,38,50,2,Cleanliness
'please investigate because the projector loses its input after a few minutes in cl15-a the physical infrastructure needs attention and staff assistance has been requested at 10:31 case 1764',lab,10,76,55,5,Infrastructure
'staff were informed that online resources time out during the session in washroom g the network service is affected during a regular teaching period at 16:32 case 1765',utility,16,51,37,1,Network
'please investigate because the service queue is moving very slowly in group study and the issue lasts more than ten minutes and several students are affected at 15:02 case 1766',library,15,84,47,4,Canteen
'a repeated observation is that laboratory equipment reports a calibration error in gate 1 although nearby rooms remain usable and the issue lasts more than ten minutes at 18:06 case 1767',outdoor,18,61,50,2,Lab_Equipment
'for the second time this week water is collecting beneath the dispenser in h5 corridor 2 the water service needs attention and several students are affected at 17:02 case 1769',hostel,17,33,80,4,Water
'students report that the wifi signal is unstable for several devices in cr201 the network service is affected during a regular teaching period at 11:47 case 1770',academic,11,67,52,4,Network
'staff were informed that online resources time out during the session in digital area the network service is affected during a regular teaching period at 11:15 case 1771',library,11,12,57,1,Network
'please investigate because the ceiling fans are not operating in g2 the electrical supply needs inspection after normal troubleshooting was attempted at 17:33 case 1772',academic,17,81,52,1,Electrical
'during the latest session students cannot authenticate to the wireless network in ff6 during a regular teaching period and the issue lasts more than ten minutes at 8:29 case 1773',academic,8,58,68,4,Network
'today we noticed that ceiling plaster appears loose near the entrance in cr101 while the area is moderately occupied and several students are affected at 13:45 case 1774',academic,13,100,60,5,Infrastructure
'during the latest session lights flicker repeatedly during use in gh corridor 1 after normal troubleshooting was attempted and the issue lasts more than ten minutes at 9:43 case 1776',hostel,9,67,59,2,Electrical
'please investigate because parking congestion is blocking access in ts12 and the issue lasts more than ten minutes after normal troubleshooting was attempted at 14:00 case 1777',academic,14,85,32,3,Other
'for the second time this week the lecture-room screen does not lower correctly in cr425 the physical infrastructure needs attention during a regular teaching period at 12:44 case 1778',academic,12,60,74,3,Infrastructure
'please investigate because the service queue is moving very slowly in backstage and the condition has become more frequent without any warning notice at 11:51 case 1779',common,11,72,50,3,Canteen
'please investigate because parking congestion is blocking access in reading hall campus operations are being disrupted and the issue lasts more than ten minutes at 9:40 case 1780',library,9,54,41,2,Other
'please investigate because parking congestion is blocking access in security post campus operations are being disrupted and several students are affected at 15:15 case 1781',outdoor,15,59,63,3,Other
'a repeated observation is that the wash area needs urgent sanitation in ts17 and it interrupts scheduled teaching and several students are affected at 11:35 case 1782',academic,11,88,50,3,Cleanliness
'please investigate because the projector loses its input after a few minutes in gh common room although nearby rooms remain usable after normal troubleshooting was attempted at 14:27 case 1783',hostel,14,100,59,5,Infrastructure
'staff were informed that an electrical panel is making an unusual sound in cr101 the electrical supply needs inspection near the main entrance to the space at 17:50 case 1784',academic,17,42,53,3,Electrical
'for the second time this week the cleaning schedule appears to have been missed in g2 after normal troubleshooting was attempted and staff assistance has been requested at 10:58 case 1785',academic,10,40,41,1,Cleanliness
'today we noticed that network coverage disappears near the back rows in g5 and the issue lasts more than ten minutes although nearby rooms remain usable at 9:43 case 1786',academic,9,93,47,3,Network
'for the second time this week the lecture-room screen does not lower correctly in main hall while the area is moderately occupied while the area is moderately occupied at 15:21 case 1787',common,15,56,54,3,Infrastructure
'please investigate because parking congestion is blocking access in ts12 while another campus service remains normal and several students are affected at 15:58 case 1788',academic,15,72,71,1,Other
'for the second time this week the ventilation fan does not start in cl1-b the electrical supply needs inspection and several students are affected at 17:03 case 1790',lab,17,55,56,2,Electrical
'during the latest session a spill has made the floor slippery in ts17 this is a hygiene and cleanliness concern although nearby rooms remain usable at 14:15 case 1791',academic,14,76,75,5,Cleanliness
'today we noticed that charging points are unavailable in cr425 the electrical supply needs inspection and the issue lasts more than ten minutes at 9:57 case 1792',academic,9,37,65,4,Electrical
'for the second time this week the lecture-room screen does not lower correctly in cl22-a the physical infrastructure needs attention while the area is moderately occupied at 16:40 case 1793',lab,16,85,77,3,Infrastructure
'a repeated observation is that a campus service is unavailable without an explanation in digital area after normal troubleshooting was attempted without any warning notice at 10:33 case 1794',library,10,25,64,2,Other
'an urgent maintenance check is needed because pedestrian movement is restricted by stored material in backstage campus operations are being disrupted and the issue lasts more than ten minutes at 15:46 case 1795',common,15,58,69,3,Other
'a repeated observation is that the queue extends into the walking area in group study the food service operation is affected and the condition has become more frequent at 13:40 case 1796',library,13,86,49,3,Canteen
'an urgent maintenance check is needed because video lectures buffer on the campus connection in counter a and the issue lasts more than ten minutes and staff assistance has been requested at 11:41 case 1797',food,11,99,46,3,Network
'today we noticed that network coverage disappears near the back rows in cooler b the network service is affected after normal troubleshooting was attempted at 9:13 case 1798',utility,9,76,60,3,Network
'for the second time this week the wired connection cannot reach institute services in student parking during a regular teaching period although nearby rooms remain usable at 12:59 case 1799',outdoor,12,1,65,1,Network
'a repeated observation is that the nearest water point is not operational in gh common room and several students are affected and the condition has become more frequent at 8:43 case 1800',hostel,8,1,58,3,Water
'for the second time this week the wired connection cannot reach institute services in cr101 the network service is affected and the condition has become more frequent at 8:42 case 1801',academic,8,59,73,2,Network
'during the latest session the common area is overcrowded in cr102 campus operations are being disrupted and it interrupts scheduled teaching at 13:30 case 1802',academic,13,85,58,4,Cleanliness
'an urgent maintenance check is needed because the filtration unit shows a service warning in washroom 1 the water service needs attention during a regular teaching period at 16:42 case 1803',utility,16,67,77,5,Water
'please investigate because the campus network drops repeatedly during class in g3 the network service is affected while another campus service remains normal at 15:49 case 1804',academic,15,75,33,4,Network
'today we noticed that the refill indicator has remained empty in cl3-b the water service needs attention without any warning notice at 9:55 case 1806',lab,9,78,58,2,Water
'please investigate because the projector loses its input after a few minutes in g2 near the main entrance to the space near the main entrance to the space at 15:07 case 1808',academic,15,45,52,3,Infrastructure
'today we noticed that multiple computers show storage errors in cl15-a and several students are affected and staff assistance has been requested at 16:14 case 1809',lab,16,38,69,2,Lab_Equipment
'please investigate because the drinking-water dispenser is empty in ts12 without any warning notice during a regular teaching period at 15:15 case 1810',academic,15,53,50,1,Water
'during the latest session students cannot authenticate to the wireless network in washroom g and the condition has become more frequent without any warning notice at 11:15 case 1811',utility,11,77,40,3,Network
'an urgent maintenance check is needed because signage for the room is missing in g2 during a regular teaching period and the condition has become more frequent at 14:57 case 1812',academic,14,41,86,5,Other
'an urgent maintenance check is needed because pedestrian movement is restricted by stored material in ts18 during a regular teaching period and several students are affected at 14:28 case 1813',academic,14,69,34,2,Other
'during the latest session the workstation cannot boot for the practical in cl3-b without any warning notice and staff assistance has been requested at 13:12 case 1814',lab,13,16,81,2,Lab_Equipment
'today we noticed that network coverage disappears near the back rows in ts18 and the condition has become more frequent after normal troubleshooting was attempted at 16:53 case 1816',academic,16,39,70,4,Network
'today we noticed that the corridor has a persistent hygiene problem in cr102 this is a hygiene and cleanliness concern although nearby rooms remain usable at 18:07 case 1818',academic,18,92,25,4,Cleanliness
'please investigate because parking congestion is blocking access in gate 1 campus operations are being disrupted and several students are affected at 18:26 case 1819',outdoor,18,36,52,3,Other
'staff were informed that the experiment console does not record readings in cl3-a near the main entrance to the space and it interrupts scheduled teaching at 16:22 case 1820',lab,16,11,41,1,Lab_Equipment
'a repeated observation is that the display cable and wall port need repair in g2 the physical infrastructure needs attention while another campus service remains normal at 8:12 case 1821',academic,8,43,66,1,Infrastructure
'students report that only one billing counter is open during the rush in h4 corridor 2 the food service operation is affected and it interrupts scheduled teaching at 13:25 case 1822',hostel,13,62,40,4,Electrical
'a repeated observation is that a campus service is unavailable without an explanation in reception campus operations are being disrupted and the condition has become more frequent at 14:13 case 1824',office,14,87,61,1,Other
'a repeated observation is that internet speed falls below a usable level in ece-202 during a regular teaching period and the condition has become more frequent at 18:28 case 1825',lab,18,85,66,4,Network
'students report that directional signage is unclear for new students in backstage campus operations are being disrupted without any warning notice at 16:19 case 1826',common,16,51,63,2,Other
'staff were informed that online resources time out during the session in gh corridor 1 the network service is affected and several students are affected at 15:23 case 1827',hostel,15,56,37,4,Network
'a repeated observation is that internet speed falls below a usable level in security post and the condition has become more frequent and the condition has become more frequent at 16:35 case 1828',outdoor,16,100,70,1,Network
'staff were informed that dust and litter remain around the workstations in cl22-a this is a hygiene and cleanliness concern and it interrupts scheduled teaching at 16:48 case 1829',lab,16,78,58,3,Cleanliness
'during the latest session students cannot authenticate to the wireless network in student parking without any warning notice during a regular teaching period at 15:11 case 1831',outdoor,15,54,66,3,Network
'staff were informed that online resources time out during the session in h5 corridor 1 the network service is affected and the issue lasts more than ten minutes at 10:57 case 1832',hostel,10,22,67,2,Network
'staff were informed that online resources time out during the session in cr202 during a regular teaching period after normal troubleshooting was attempted at 11:22 case 1833',academic,11,58,45,2,Network
'today we noticed that seating capacity is insufficient during the meal break in cl15-a while another campus service remains normal after normal troubleshooting was attempted at 15:47 case 1834',lab,15,73,56,4,Canteen
'staff were informed that billing and collection lines are merging into one queue in gym the food service operation is affected without any warning notice at 15:17 case 1835',sports,15,63,35,3,Canteen
'students report that directional signage is unclear for new students in gym and the issue lasts more than ten minutes while the area is moderately occupied at 8:01 case 1836',sports,8,69,68,4,Other
'during the latest session lights flicker repeatedly during use in cooler a the electrical supply needs inspection and staff assistance has been requested at 18:22 case 1837',utility,18,81,45,2,Electrical
'a repeated observation is that a power socket is loose and unsafe in ts18 after normal troubleshooting was attempted while another campus service remains normal at 17:58 case 1838',academic,17,83,80,4,Electrical
'during the latest session lights flicker repeatedly during use in food court the electrical supply needs inspection while another campus service remains normal at 10:50 case 1840',food,10,78,61,1,Electrical
'for the second time this week the lecture-room screen does not lower correctly in academic office and staff assistance has been requested while the area is moderately occupied at 16:55 case 1841',office,16,70,54,1,Infrastructure
'for the second time this week the cleaning schedule appears to have been missed in cr101 this is a hygiene and cleanliness concern near the main entrance to the space at 10:56 case 1842',academic,10,79,40,3,Cleanliness
'today we noticed that ceiling plaster appears loose near the entrance in h4 corridor 2 the physical infrastructure needs attention and the issue lasts more than ten minutes at 15:57 case 1843',hostel,15,96,42,3,Infrastructure
'during the latest session students are waiting too long for food service in food court after normal troubleshooting was attempted and it interrupts scheduled teaching at 15:04 case 1844',food,15,28,52,1,Canteen
'please investigate because the campus network drops repeatedly during class in reception while another campus service remains normal during a regular teaching period at 11:13 case 1845',office,11,95,51,4,Network
'staff were informed that online resources time out during the session in main hall although nearby rooms remain usable after normal troubleshooting was attempted at 18:01 case 1846',common,18,59,24,3,Network
'staff were informed that online resources time out during the session in cl3-a the network service is affected near the main entrance to the space at 12:31 case 1847',lab,12,83,72,1,Network
'please investigate because the projector loses its input after a few minutes in g2 and it interrupts scheduled teaching near the main entrance to the space at 12:06 case 1848',academic,12,49,52,3,Infrastructure
'students report that the air conditioner stops cooling after midday in cl15-a the electrical supply needs inspection and several students are affected at 9:28 case 1849',lab,9,26,49,4,Electrical
'for the second time this week the wired connection cannot reach institute services in gym the network service is affected and the issue lasts more than ten minutes at 14:06 case 1851',sports,14,71,35,1,Network
'for the second time this week the device driver is missing from the workstation in gh common room near the main entrance to the space and it interrupts scheduled teaching at 12:13 case 1852',hostel,12,50,74,2,Lab_Equipment
'please investigate because the service queue is moving very slowly in dining hall the food service operation is affected and the condition has become more frequent at 9:10 case 1854',food,9,94,30,3,Canteen
'a repeated observation is that laboratory equipment reports a calibration error in cl22-a laboratory equipment availability is affected and the issue lasts more than ten minutes at 15:35 case 1855',lab,15,66,52,2,Lab_Equipment
'a repeated observation is that the display cable and wall port need repair in cl22-a the physical infrastructure needs attention during a regular teaching period at 8:39 case 1856',lab,8,59,32,3,Infrastructure
'an urgent maintenance check is needed because pedestrian movement is restricted by stored material in cs2 campus operations are being disrupted during a regular teaching period at 11:40 case 1857',academic,11,75,70,3,Other
'during the latest session students cannot authenticate to the wireless network in cr102 the network service is affected during a regular teaching period at 15:26 case 1858',academic,15,60,41,4,Network
'during the latest session students cannot authenticate to the wireless network in food court the network service is affected and the issue lasts more than ten minutes at 9:03 case 1859',food,9,1,65,5,Network
'an urgent maintenance check is needed because standing water is creating an unhygienic patch in cooler b this is a hygiene and cleanliness concern and staff assistance has been requested at 17:47 case 1860',utility,17,46,57,2,Cleanliness
'for the second time this week the wired connection cannot reach institute services in washroom 1 the network service is affected although nearby rooms remain usable at 18:20 case 1861',utility,18,39,53,2,Network
'please investigate because the projector loses its input after a few minutes in reception the physical infrastructure needs attention near the main entrance to the space at 11:34 case 1862',office,11,55,86,5,Infrastructure
'during the latest session a spill has made the floor slippery in cr202 this is a hygiene and cleanliness concern and staff assistance has been requested at 8:13 case 1863',academic,8,60,70,3,Cleanliness
'please investigate because the service queue is moving very slowly in billing counter the food service operation is affected and staff assistance has been requested at 18:39 case 1864',food,18,60,74,5,Canteen
'during the latest session the workstation cannot boot for the practical in main hall and it interrupts scheduled teaching and the issue lasts more than ten minutes at 17:25 case 1865',common,17,63,74,3,Lab_Equipment
'please investigate because the drinking-water dispenser is empty in cs2 near the main entrance to the space without any warning notice at 8:11 case 1866',academic,8,54,55,3,Water
'today we noticed that ceiling plaster appears loose near the entrance in academic office the physical infrastructure needs attention although nearby rooms remain usable at 14:58 case 1867',office,14,100,69,5,Infrastructure
'a repeated observation is that the wash area needs urgent sanitation in indoor court while another campus service remains normal near the main entrance to the space at 15:38 case 1868',sports,15,59,49,2,Other
'staff were informed that the writing surface is damaged and difficult to use in ff6 near the main entrance to the space and the issue lasts more than ten minutes at 12:51 case 1870',academic,12,97,69,3,Infrastructure
'during the latest session the workstation cannot boot for the practical in cr425 laboratory equipment availability is affected and several students are affected at 10:00 case 1872',academic,10,43,51,4,Lab_Equipment
'students report that a monitor and keyboard are not detected in washroom g laboratory equipment availability is affected and several students are affected at 15:42 case 1873',utility,15,100,68,2,Lab_Equipment
'during the latest session students are waiting too long for food service in gym the food service operation is affected and the issue lasts more than ten minutes at 14:30 case 1874',sports,14,47,74,2,Canteen
'staff were informed that billing and collection lines are merging into one queue in counter a while another campus service remains normal without any warning notice at 13:07 case 1875',food,13,28,50,5,Canteen
'staff were informed that a tap continues running after it is closed in backstage the water service needs attention and it interrupts scheduled teaching at 8:00 case 1877',common,8,69,50,3,Water
'please investigate because the campus network drops repeatedly during class in security post and the issue lasts more than ten minutes while the area is moderately occupied at 14:32 case 1879',outdoor,14,95,67,4,Network
'a repeated observation is that a campus service is unavailable without an explanation in ts18 campus operations are being disrupted and several students are affected at 12:10 case 1880',academic,12,73,49,4,Other
'for the second time this week the wired connection cannot reach institute services in h5 common room and it interrupts scheduled teaching and the condition has become more frequent at 17:43 case 1882',hostel,17,87,53,3,Network
'for the second time this week the ventilation fan does not start in digital area the electrical supply needs inspection and it interrupts scheduled teaching at 8:29 case 1883',library,8,77,66,2,Electrical
'a repeated observation is that the nearest water point is not operational in cs2 although nearby rooms remain usable during a regular teaching period at 11:16 case 1884',academic,11,81,75,2,Water
'an urgent maintenance check is needed because video lectures buffer on the campus connection in h4 common room near the main entrance to the space and several students are affected at 15:16 case 1885',hostel,15,99,30,5,Network
'students report that the air conditioner stops cooling after midday in h5 corridor 1 the electrical supply needs inspection during a regular teaching period at 11:32 case 1886',hostel,11,88,59,3,Electrical
'students report that the wifi signal is unstable for several devices in cooler a while another campus service remains normal and the condition has become more frequent at 9:00 case 1887',utility,9,41,69,3,Network
'today we noticed that multiple computers show storage errors in h4 corridor 2 laboratory equipment availability is affected and several students are affected at 15:15 case 1888',hostel,15,77,36,3,Lab_Equipment
'staff were informed that an unattended item is obstructing the walkway in counter a campus operations are being disrupted during a regular teaching period at 8:41 case 1889',food,8,81,40,3,Other
'please investigate because several systems freeze during compilation in digital area and several students are affected and several students are affected at 17:18 case 1890',library,17,62,72,2,Lab_Equipment
'please investigate because the projector loses its input after a few minutes in academic office the physical infrastructure needs attention near the main entrance to the space at 17:22 case 1891',office,17,49,61,4,Infrastructure
'today we noticed that charging points are unavailable in h4 corridor 2 during a regular teaching period near the main entrance to the space at 9:47 case 1892',hostel,9,56,58,3,Electrical
'please investigate because the drinking-water dispenser is empty in h5 corridor 1 the water service needs attention without any warning notice at 17:50 case 1893',hostel,17,61,58,1,Water
'an urgent maintenance check is needed because a switchboard becomes warm during operation in security post the electrical supply needs inspection while another campus service remains normal at 9:58 case 1894',outdoor,9,52,71,2,Other
'an urgent maintenance check is needed because the filtration unit shows a service warning in h4 corridor 1 the water service needs attention and the issue lasts more than ten minutes at 17:35 case 1896',hostel,17,57,65,4,Water
'for the second time this week the cleaning schedule appears to have been missed in gh common room and the condition has become more frequent during a regular teaching period at 16:21 case 1897',hostel,16,38,43,2,Cleanliness
'a repeated observation is that the wash area needs urgent sanitation in basketball court this is a hygiene and cleanliness concern and the condition has become more frequent at 11:34 case 1898',sports,11,89,81,2,Cleanliness
'an urgent maintenance check is needed because the filtration unit shows a service warning in reading hall near the main entrance to the space without any warning notice at 10:37 case 1899',library,10,37,63,4,Water
'an urgent maintenance check is needed because the filtration unit shows a service warning in ts12 during a regular teaching period while another campus service remains normal at 11:11 case 1901',academic,11,68,41,1,Water
'please investigate because the ceiling fans are not operating in ff6 the electrical supply needs inspection without any warning notice at 13:34 case 1903',academic,13,73,49,2,Electrical
'a repeated observation is that internet speed falls below a usable level in backstage the network service is affected while the area is moderately occupied at 16:10 case 1905',common,16,61,41,2,Cleanliness
'a repeated observation is that the nearest water point is not operational in gh corridor 1 and several students are affected without any warning notice at 17:05 case 1907',hostel,17,61,58,2,Water
'a repeated observation is that a power socket is loose and unsafe in visitor parking the electrical supply needs inspection and staff assistance has been requested at 14:11 case 1908',outdoor,14,51,90,2,Electrical
'staff were informed that a tap continues running after it is closed in cr202 without any warning notice although nearby rooms remain usable at 13:27 case 1909',academic,13,57,35,2,Water
'please investigate because the area has not been cleaned since the morning in backstage this is a hygiene and cleanliness concern although nearby rooms remain usable at 17:25 case 1910',common,17,26,69,2,Cleanliness
'students report that waste bins are overflowing into the corridor in visitor parking this is a hygiene and cleanliness concern although nearby rooms remain usable at 9:01 case 1911',outdoor,9,55,50,5,Cleanliness
'today we noticed that the corridor has a persistent hygiene problem in academic office this is a hygiene and cleanliness concern although nearby rooms remain usable at 15:11 case 1912',office,15,71,67,4,Cleanliness
'during the latest session students cannot authenticate to the wireless network in academic office while the area is moderately occupied after normal troubleshooting was attempted at 12:08 case 1913',office,12,71,78,2,Network
'please investigate because the ceiling fans are not operating in gate 1 while another campus service remains normal near the main entrance to the space at 12:05 case 1914',outdoor,12,90,78,4,Electrical
'during the latest session students cannot authenticate to the wireless network in cr202 the network service is affected and it interrupts scheduled teaching at 13:36 case 1915',academic,13,73,62,2,Network
'please investigate because the area has not been cleaned since the morning in cl1-a this is a hygiene and cleanliness concern without any warning notice at 18:07 case 1916',lab,18,54,44,1,Cleanliness
'students report that water is leaking into the walking area in ece-201 the water service needs attention after normal troubleshooting was attempted at 12:28 case 1917',lab,12,45,85,2,Water
'today we noticed that ceiling plaster appears loose near the entrance in g1 the physical infrastructure needs attention after normal troubleshooting was attempted at 8:37 case 1918',academic,8,43,58,4,Infrastructure
'today we noticed that ceiling plaster appears loose near the entrance in cooler b during a regular teaching period during a regular teaching period at 11:21 case 1919',utility,11,86,77,4,Infrastructure
'for the second time this week water is collecting beneath the dispenser in h5 corridor 2 the water service needs attention during a regular teaching period at 14:42 case 1920',hostel,14,39,44,3,Infrastructure
'please investigate because several systems freeze during compilation in billing counter laboratory equipment availability is affected and the condition has become more frequent at 9:59 case 1921',food,9,94,64,2,Lab_Equipment
'during the latest session students are waiting too long for food service in indoor court and staff assistance has been requested although nearby rooms remain usable at 13:01 case 1923',sports,13,89,44,2,Canteen
'students report that several desks have loose or damaged fittings in billing counter the physical infrastructure needs attention without any warning notice at 11:48 case 1924',food,11,49,62,2,Infrastructure
'please investigate because the ceiling fans are not operating in cooler a near the main entrance to the space although nearby rooms remain usable at 13:38 case 1925',utility,13,72,84,3,Electrical
'an urgent maintenance check is needed because the lunch rush is blocking the entrance in g5 and the condition has become more frequent without any warning notice at 15:16 case 1927',academic,15,33,63,1,Canteen
'during the latest session lights flicker repeatedly during use in backstage the electrical supply needs inspection after normal troubleshooting was attempted at 15:01 case 1928',common,15,68,39,3,Electrical
'an urgent maintenance check is needed because a switchboard becomes warm during operation in group study the electrical supply needs inspection and the condition has become more frequent at 10:17 case 1929',library,10,14,73,2,Electrical
'staff were informed that online resources time out during the session in ts17 the network service is affected after normal troubleshooting was attempted at 9:59 case 1930',academic,9,75,42,4,Network
'staff were informed that an unattended item is obstructing the walkway in gate 1 while another campus service remains normal and the condition has become more frequent at 18:01 case 1931',outdoor,18,92,62,4,Other
'please investigate because the area has not been cleaned since the morning in student parking and the issue lasts more than ten minutes while another campus service remains normal at 8:41 case 1932',outdoor,8,91,51,1,Cleanliness
'an urgent maintenance check is needed because the lunch rush is blocking the entrance in g6 the food service operation is affected and the issue lasts more than ten minutes at 14:32 case 1933',academic,14,64,65,3,Canteen
'a repeated observation is that the wash area needs urgent sanitation in backstage and the issue lasts more than ten minutes although nearby rooms remain usable at 9:54 case 1934',common,9,47,48,5,Cleanliness
'a repeated observation is that the queue extends into the walking area in digital area the food service operation is affected and staff assistance has been requested at 9:36 case 1935',library,9,80,59,3,Canteen
'today we noticed that network coverage disappears near the back rows in cr102 the network service is affected while the area is moderately occupied at 9:00 case 1936',academic,9,80,64,3,Network
'please investigate because the ceiling fans are not operating in cl15-b and the issue lasts more than ten minutes although nearby rooms remain usable at 11:13 case 1937',lab,11,78,46,2,Electrical
'an urgent maintenance check is needed because signage for the room is missing in gh corridor 1 the physical infrastructure needs attention although nearby rooms remain usable at 15:38 case 1940',hostel,15,61,49,2,Infrastructure
'during the latest session students cannot authenticate to the wireless network in ts12 and the condition has become more frequent although nearby rooms remain usable at 13:03 case 1941',academic,13,62,67,4,Network
'today we noticed that charging points are unavailable in h4 corridor 1 the electrical supply needs inspection and staff assistance has been requested at 8:42 case 1942',hostel,8,26,52,4,Electrical
'an urgent maintenance check is needed because video lectures buffer on the campus connection in cr101 the network service is affected and several students are affected at 9:04 case 1945',academic,9,52,63,2,Network
'during the latest session students are waiting too long for food service in food court and it interrupts scheduled teaching during a regular teaching period at 10:48 case 1946',food,10,85,63,3,Canteen
'an urgent maintenance check is needed because a switchboard becomes warm during operation in ece-201 the electrical supply needs inspection near the main entrance to the space at 10:52 case 1947',lab,10,62,34,5,Electrical
'a repeated observation is that internet speed falls below a usable level in cr101 the network service is affected although nearby rooms remain usable at 15:20 case 1948',academic,15,56,54,3,Network
'for the second time this week the wired connection cannot reach institute services in cl1-b and it interrupts scheduled teaching and it interrupts scheduled teaching at 8:52 case 1949',lab,8,35,60,1,Network
'for the second time this week order processing has stopped at one counter in basketball court the food service operation is affected and the condition has become more frequent at 14:07 case 1951',sports,14,89,38,2,Canteen
'during the latest session the classroom door cannot close safely in gh corridor 1 the physical infrastructure needs attention after normal troubleshooting was attempted at 10:22 case 1952',hostel,10,46,53,2,Infrastructure
'staff were informed that an electrical panel is making an unusual sound in visitor parking the electrical supply needs inspection and the issue lasts more than ten minutes at 12:54 case 1953',outdoor,12,74,53,4,Electrical
'please investigate because the service queue is moving very slowly in digital area the food service operation is affected although nearby rooms remain usable at 14:43 case 1954',library,14,54,56,3,Canteen
'today we noticed that multiple computers show storage errors in ece-202 laboratory equipment availability is affected after normal troubleshooting was attempted at 9:27 case 1955',lab,9,76,41,1,Lab_Equipment
'please investigate because the drinking-water dispenser is empty in h4 corridor 1 during a regular teaching period and staff assistance has been requested at 15:24 case 1956',hostel,15,59,57,4,Water
'an urgent maintenance check is needed because the lab printer is unavailable to student systems in cl3-a and several students are affected although nearby rooms remain usable at 16:40 case 1957',lab,16,82,42,3,Lab_Equipment
'please investigate because the ceiling fans are not operating in cl22-a while another campus service remains normal and the issue lasts more than ten minutes at 14:26 case 1960',lab,14,62,67,5,Electrical
'today we noticed that seating capacity is insufficient during the meal break in ff6 the food service operation is affected and it interrupts scheduled teaching at 9:46 case 1962',academic,9,66,35,4,Canteen
'for the second time this week order processing has stopped at one counter in cl3-a without any warning notice while another campus service remains normal at 10:31 case 1963',lab,10,64,70,2,Canteen
'an urgent maintenance check is needed because the lab printer is unavailable to student systems in cl1-a and staff assistance has been requested and the issue lasts more than ten minutes at 10:07 case 1964',lab,10,51,38,3,Lab_Equipment
'students report that water is leaking into the walking area in cooler a and it interrupts scheduled teaching during a regular teaching period at 17:31 case 1965',utility,17,55,39,1,Water
'for the second time this week order processing has stopped at one counter in backstage the food service operation is affected and it interrupts scheduled teaching at 10:35 case 1966',common,10,61,83,5,Canteen
'an urgent maintenance check is needed because the filtration unit shows a service warning in visitor parking the water service needs attention after normal troubleshooting was attempted at 16:49 case 1967',outdoor,16,73,40,5,Water
'an urgent maintenance check is needed because video lectures buffer on the campus connection in washroom 1 the network service is affected and the condition has become more frequent at 14:26 case 1968',utility,14,88,63,1,Network
'today we noticed that charging points are unavailable in cr102 after normal troubleshooting was attempted near the main entrance to the space at 15:58 case 1969',academic,15,59,69,3,Electrical
'today we noticed that the notice board contains outdated information in h5 corridor 2 after normal troubleshooting was attempted during a regular teaching period at 16:19 case 1970',hostel,16,59,55,1,Other
'an urgent maintenance check is needed because pedestrian movement is restricted by stored material in cl15-b campus operations are being disrupted near the main entrance to the space at 17:58 case 1971',lab,17,56,86,3,Other
'for the second time this week the device driver is missing from the workstation in h4 common room laboratory equipment availability is affected and the issue lasts more than ten minutes at 11:48 case 1972',hostel,11,52,53,2,Lab_Equipment
'for the second time this week the cleaning schedule appears to have been missed in cl1-a this is a hygiene and cleanliness concern while another campus service remains normal at 17:59 case 1974',lab,17,51,63,3,Cleanliness
'for the second time this week the cleaning schedule appears to have been missed in g3 while another campus service remains normal during a regular teaching period at 9:33 case 1976',academic,9,91,49,4,Cleanliness
'today we noticed that multiple computers show storage errors in cl22-b while another campus service remains normal and the condition has become more frequent at 12:34 case 1977',lab,12,65,57,4,Lab_Equipment
'students report that waste bins are overflowing into the corridor in cr201 this is a hygiene and cleanliness concern and several students are affected at 8:38 case 1978',academic,8,74,49,2,Cleanliness
'please investigate because the drinking-water dispenser is empty in cs1 without any warning notice near the main entrance to the space at 16:12 case 1979',academic,16,64,70,2,Water
'for the second time this week order processing has stopped at one counter in cl15-b after normal troubleshooting was attempted while the area is moderately occupied at 13:40 case 1980',lab,13,63,47,3,Canteen
'students report that several desks have loose or damaged fittings in cl1-a the physical infrastructure needs attention without any warning notice at 8:56 case 1981',lab,8,39,57,4,Infrastructure
'students report that a monitor and keyboard are not detected in cooler a laboratory equipment availability is affected although nearby rooms remain usable at 13:31 case 1982',utility,13,59,36,2,Lab_Equipment
'for the second time this week the device driver is missing from the workstation in counter a laboratory equipment availability is affected during a regular teaching period at 18:24 case 1984',food,18,100,45,5,Lab_Equipment
'an urgent maintenance check is needed because the lab printer is unavailable to student systems in digital area near the main entrance to the space while the area is moderately occupied at 8:27 case 1985',library,8,32,36,2,Lab_Equipment
'students report that several desks have loose or damaged fittings in cl3-a the physical infrastructure needs attention without any warning notice at 10:41 case 1986',lab,10,75,66,1,Infrastructure
'during the latest session the classroom door cannot close safely in ts18 the physical infrastructure needs attention and several students are affected at 17:39 case 1987',academic,17,73,73,4,Infrastructure
'a repeated observation is that internet speed falls below a usable level in g1 and several students are affected and staff assistance has been requested at 9:44 case 1988',academic,9,66,57,1,Network
'during the latest session water pressure is too low for normal use in h4 common room although nearby rooms remain usable after normal troubleshooting was attempted at 17:45 case 1989',hostel,17,50,40,2,Water
'please investigate because the projector loses its input after a few minutes in g2 the physical infrastructure needs attention and it interrupts scheduled teaching at 10:46 case 1990',academic,10,51,67,4,Infrastructure
'please investigate because the projector loses its input after a few minutes in student parking during a regular teaching period during a regular teaching period at 8:09 case 1991',outdoor,8,76,45,4,Infrastructure
'please investigate because the ceiling fans are not operating in ts12 while another campus service remains normal and the issue lasts more than ten minutes at 17:03 case 1993',academic,17,53,43,2,Electrical
'students report that water is leaking into the walking area in g3 the water service needs attention near the main entrance to the space at 12:13 case 1994',academic,12,100,70,5,Water
'students report that the wifi signal is unstable for several devices in ts17 the network service is affected although nearby rooms remain usable at 8:12 case 1995',academic,8,54,64,3,Network
'students report that waste bins are overflowing into the corridor in cl15-a this is a hygiene and cleanliness concern while the area is moderately occupied at 18:23 case 1998',lab,18,60,85,5,Cleanliness
'please investigate because the area has not been cleaned since the morning in student parking this is a hygiene and cleanliness concern near the main entrance to the space at 15:48 case 1999',outdoor,15,76,52,3,Cleanliness
'for the second time this week the lecture-room screen does not lower correctly in cl1-a the physical infrastructure needs attention after normal troubleshooting was attempted at 14:49 case 2000',lab,14,59,53,1,Infrastructure
'today we noticed that ceiling plaster appears loose near the entrance in ece-202 near the main entrance to the space while the area is moderately occupied at 12:28 case 2001',lab,12,51,59,2,Infrastructure
'please investigate because the ceiling fans are not operating in cs2 the electrical supply needs inspection and the condition has become more frequent at 13:42 case 2002',academic,13,66,58,3,Electrical
'for the second time this week the cleaning schedule appears to have been missed in cl15-b this is a hygiene and cleanliness concern and the issue lasts more than ten minutes at 18:37 case 2003',lab,18,64,53,2,Cleanliness
'staff were informed that a tap continues running after it is closed in food court the water service needs attention after normal troubleshooting was attempted at 9:53 case 2004',food,9,49,85,1,Water
'staff were informed that dust and litter remain around the workstations in indoor court although nearby rooms remain usable and staff assistance has been requested at 9:48 case 2005',sports,9,53,56,3,Cleanliness
'for the second time this week the ventilation fan does not start in cl1-a the electrical supply needs inspection while another campus service remains normal at 14:34 case 2006',lab,14,79,81,3,Electrical
'students report that the air conditioner stops cooling after midday in h5 common room and the condition has become more frequent without any warning notice at 12:19 case 2008',hostel,12,56,77,4,Electrical
'for the second time this week the wired connection cannot reach institute services in cl1-b the network service is affected while the area is moderately occupied at 14:01 case 2009',lab,14,92,67,5,Network
'an urgent maintenance check is needed because standing water is creating an unhygienic patch in ff6 this is a hygiene and cleanliness concern and staff assistance has been requested at 17:29 case 2010',academic,17,60,50,3,Cleanliness
'today we noticed that network coverage disappears near the back rows in cl3-b and staff assistance has been requested while another campus service remains normal at 18:10 case 2011',lab,18,67,59,2,Network
'students report that several desks have loose or damaged fittings in g5 the physical infrastructure needs attention and the condition has become more frequent at 15:32 case 2013',academic,15,95,45,5,Infrastructure
'an urgent maintenance check is needed because pedestrian movement is restricted by stored material in billing counter and the issue lasts more than ten minutes during a regular teaching period at 15:26 case 2015',food,15,50,49,4,Other
'for the second time this week order processing has stopped at one counter in cs1 the food service operation is affected while another campus service remains normal at 12:09 case 2016',academic,12,52,42,2,Canteen
'for the second time this week water is collecting beneath the dispenser in h5 corridor 1 the water service needs attention during a regular teaching period at 11:04 case 2017',hostel,11,77,42,3,Water
'please investigate because several systems freeze during compilation in cl15-a and it interrupts scheduled teaching during a regular teaching period at 12:13 case 2018',lab,12,73,55,4,Lab_Equipment
'staff were informed that an electrical panel is making an unusual sound in h4 corridor 1 the electrical supply needs inspection near the main entrance to the space at 16:49 case 2019',hostel,16,51,28,1,Electrical
'staff were informed that online resources time out during the session in g3 and it interrupts scheduled teaching although nearby rooms remain usable at 16:25 case 2020',academic,16,75,25,2,Network
'for the second time this week the wired connection cannot reach institute services in counter a the network service is affected near the main entrance to the space at 8:14 case 2021',food,8,86,49,2,Network
'during the latest session the workstation cannot boot for the practical in visitor parking and several students are affected and several students are affected at 14:45 case 2022',outdoor,14,100,24,3,Lab_Equipment
'for the second time this week order processing has stopped at one counter in g3 the food service operation is affected although nearby rooms remain usable at 13:12 case 2023',academic,13,63,65,3,Canteen
'an urgent maintenance check is needed because the lab printer is unavailable to student systems in cl22-a and several students are affected and several students are affected at 10:46 case 2025',lab,10,67,60,3,Lab_Equipment
'a repeated observation is that internet speed falls below a usable level in cl15-a the network service is affected without any warning notice at 18:59 case 2026',lab,18,97,59,2,Network
'students report that directional signage is unclear for new students in gh common room during a regular teaching period and staff assistance has been requested at 12:40 case 2027',hostel,12,69,30,2,Other
'an urgent maintenance check is needed because video lectures buffer on the campus connection in h5 corridor 2 after normal troubleshooting was attempted and the condition has become more frequent at 11:06 case 2028',hostel,11,85,61,1,Network
'an urgent maintenance check is needed because the lab printer is unavailable to student systems in g2 laboratory equipment availability is affected although nearby rooms remain usable at 12:51 case 2029',academic,12,35,61,3,Lab_Equipment
'for the second time this week the device driver is missing from the workstation in cs1 and the issue lasts more than ten minutes and the issue lasts more than ten minutes at 13:18 case 2030',academic,13,52,82,3,Lab_Equipment
'for the second time this week the help desk is closed during published hours in security post and the issue lasts more than ten minutes and several students are affected at 9:37 case 2031',outdoor,9,68,27,4,Other
'please investigate because the projector loses its input after a few minutes in cooler b and staff assistance has been requested after normal troubleshooting was attempted at 17:44 case 2032',utility,17,43,52,4,Infrastructure
'staff were informed that the experiment console does not record readings in digital area during a regular teaching period and it interrupts scheduled teaching at 12:03 case 2035',library,12,71,48,2,Lab_Equipment
'during the latest session the classroom door cannot close safely in reading hall while the area is moderately occupied without any warning notice at 15:26 case 2036',library,15,62,66,3,Network
'staff were informed that billing and collection lines are merging into one queue in cr201 the food service operation is affected and the condition has become more frequent at 17:47 case 2037',academic,17,65,37,3,Canteen
'please investigate because the service queue is moving very slowly in reading hall the food service operation is affected while the area is moderately occupied at 8:07 case 2038',library,8,50,43,5,Canteen
'for the second time this week the wired connection cannot reach institute services in reading hall the network service is affected and it interrupts scheduled teaching at 9:41 case 2039',library,9,53,57,2,Network
'during the latest session the common area is overcrowded in ff6 campus operations are being disrupted and the condition has become more frequent at 11:55 case 2040',academic,11,99,67,3,Other
'an urgent maintenance check is needed because the lab printer is unavailable to student systems in cr101 laboratory equipment availability is affected and the issue lasts more than ten minutes at 18:51 case 2041',academic,18,43,44,3,Lab_Equipment
'students report that water is leaking into the walking area in ts18 and the issue lasts more than ten minutes and staff assistance has been requested at 18:28 case 2042',academic,18,41,68,2,Water
'a repeated observation is that internet speed falls below a usable level in g3 the network service is affected while another campus service remains normal at 14:20 case 2043',academic,14,66,20,4,Network
'today we noticed that multiple computers show storage errors in g5 near the main entrance to the space and the issue lasts more than ten minutes at 13:48 case 2044',academic,13,94,67,4,Lab_Equipment
'a repeated observation is that internet speed falls below a usable level in cr425 and it interrupts scheduled teaching and the issue lasts more than ten minutes at 14:58 case 2045',academic,14,49,39,3,Network
'a repeated observation is that the queue extends into the walking area in digital area the food service operation is affected without any warning notice at 8:02 case 2049',library,8,58,52,4,Canteen
'during the latest session students cannot authenticate to the wireless network in washroom 1 and staff assistance has been requested and the issue lasts more than ten minutes at 16:54 case 2050',utility,16,69,60,3,Network
'a repeated observation is that internet speed falls below a usable level in reading hall and the condition has become more frequent and the issue lasts more than ten minutes at 12:24 case 2051',library,12,62,72,3,Network
'for the second time this week order processing has stopped at one counter in ff6 although nearby rooms remain usable although nearby rooms remain usable at 15:24 case 2053',academic,15,43,61,4,Water
'staff were informed that a tap continues running after it is closed in cooler b the water service needs attention near the main entrance to the space at 16:40 case 2054',utility,16,88,75,4,Water
'students report that several desks have loose or damaged fittings in cl22-b the physical infrastructure needs attention and the issue lasts more than ten minutes at 16:05 case 2056',lab,16,47,69,2,Infrastructure
'today we noticed that ceiling plaster appears loose near the entrance in visitor parking the physical infrastructure needs attention and staff assistance has been requested at 16:20 case 2057',outdoor,16,74,59,4,Infrastructure
'students report that a monitor and keyboard are not detected in g2 during a regular teaching period and several students are affected at 18:04 case 2058',academic,18,42,68,4,Lab_Equipment
'staff were informed that billing and collection lines are merging into one queue in counter a and staff assistance has been requested and it interrupts scheduled teaching at 15:50 case 2059',food,15,48,50,2,Canteen
'an urgent maintenance check is needed because the lab printer is unavailable to student systems in cl22-a during a regular teaching period during a regular teaching period at 14:11 case 2061',lab,14,49,55,3,Lab_Equipment
'please investigate because the area has not been cleaned since the morning in group study this is a hygiene and cleanliness concern and several students are affected at 13:43 case 2063',library,13,55,61,1,Cleanliness
'a repeated observation is that a campus service is unavailable without an explanation in ts12 campus operations are being disrupted and it interrupts scheduled teaching at 17:30 case 2064',academic,17,66,53,2,Other
'staff were informed that online resources time out during the session in food court during a regular teaching period without any warning notice at 12:34 case 2065',food,12,91,35,3,Network
'for the second time this week the wired connection cannot reach institute services in g2 the network service is affected and the condition has become more frequent at 10:29 case 2066',academic,10,68,59,3,Network
'a repeated observation is that internet speed falls below a usable level in g1 the network service is affected while another campus service remains normal at 18:05 case 2067',academic,18,51,40,3,Network
'staff were informed that the writing surface is damaged and difficult to use in cl22-b the physical infrastructure needs attention and several students are affected at 10:30 case 2069',lab,10,56,75,3,Infrastructure
'during the latest session students cannot authenticate to the wireless network in cl1-b and it interrupts scheduled teaching and the condition has become more frequent at 17:46 case 2070',lab,17,100,49,5,Network
'during the latest session a spill has made the floor slippery in academic office this is a hygiene and cleanliness concern and the issue lasts more than ten minutes at 8:31 case 2071',office,8,52,56,3,Cleanliness
'staff were informed that an electrical panel is making an unusual sound in g1 and the issue lasts more than ten minutes near the main entrance to the space at 11:30 case 2072',academic,11,71,49,2,Electrical
'please investigate because the projector loses its input after a few minutes in dining hall and several students are affected while the area is moderately occupied at 18:21 case 2073',food,18,59,61,2,Infrastructure
'a repeated observation is that the display cable and wall port need repair in cooler a and the issue lasts more than ten minutes and the condition has become more frequent at 8:35 case 2074',utility,8,46,24,1,Infrastructure
'please investigate because parking congestion is blocking access in g3 campus operations are being disrupted while another campus service remains normal at 18:00 case 2075',academic,18,2,40,3,Other
'staff were informed that dust and litter remain around the workstations in h4 corridor 1 this is a hygiene and cleanliness concern without any warning notice at 10:28 case 2076',hostel,10,98,47,4,Cleanliness
'staff were informed that an unattended item is obstructing the walkway in ece-202 and the condition has become more frequent during a regular teaching period at 9:08 case 2077',lab,9,44,45,2,Other
'please investigate because the service queue is moving very slowly in food court the food service operation is affected without any warning notice at 14:55 case 2078',food,14,81,42,2,Canteen
'today we noticed that seating capacity is insufficient during the meal break in visitor parking the food service operation is affected during a regular teaching period at 12:50 case 2079',outdoor,12,71,58,3,Canteen
'for the second time this week water is collecting beneath the dispenser in washroom g the water service needs attention during a regular teaching period at 14:32 case 2082',utility,14,64,36,2,Water
'please investigate because parking congestion is blocking access in security post campus operations are being disrupted during a regular teaching period at 8:05 case 2084',outdoor,8,81,37,2,Other
'a repeated observation is that the wash area needs urgent sanitation in gh corridor 1 without any warning notice and the condition has become more frequent at 10:08 case 2085',hostel,10,51,51,4,Cleanliness
'a repeated observation is that laboratory equipment reports a calibration error in ece-202 although nearby rooms remain usable and several students are affected at 17:24 case 2086',lab,17,56,70,4,Lab_Equipment
'staff were informed that billing and collection lines are merging into one queue in cl1-a the food service operation is affected and several students are affected at 18:36 case 2087',lab,18,71,39,1,Canteen
'for the second time this week the cleaning schedule appears to have been missed in cr102 near the main entrance to the space while the area is moderately occupied at 15:38 case 2088',academic,15,47,57,1,Cleanliness
'a repeated observation is that the display cable and wall port need repair in g2 while another campus service remains normal and it interrupts scheduled teaching at 14:52 case 2089',academic,14,37,46,3,Infrastructure
'please investigate because parking congestion is blocking access in digital area campus operations are being disrupted and the issue lasts more than ten minutes at 8:05 case 2090',library,8,45,55,3,Other
'a repeated observation is that the wash area needs urgent sanitation in visitor parking while another campus service remains normal while another campus service remains normal at 13:43 case 2092',outdoor,13,54,69,1,Cleanliness
'please investigate because the campus network drops repeatedly during class in cl22-b the network service is affected during a regular teaching period at 8:26 case 2093',lab,8,93,71,4,Network
'please investigate because the projector loses its input after a few minutes in g2 the physical infrastructure needs attention and it interrupts scheduled teaching at 11:01 case 2094',academic,11,76,65,2,Infrastructure
'an urgent maintenance check is needed because video lectures buffer on the campus connection in cl3-b the network service is affected and staff assistance has been requested at 15:41 case 2095',lab,15,49,77,4,Network
'students report that the air conditioner stops cooling after midday in h4 corridor 2 while another campus service remains normal and the condition has become more frequent at 18:02 case 2097',hostel,18,38,50,3,Electrical
'an urgent maintenance check is needed because the lunch rush is blocking the entrance in h4 corridor 2 after normal troubleshooting was attempted after normal troubleshooting was attempted at 12:12 case 2099',hostel,12,76,41,1,Canteen
'an urgent maintenance check is needed because video lectures buffer on the campus connection in g1 while the area is moderately occupied although nearby rooms remain usable at 13:02 case 2100',academic,13,63,39,2,Network
'students report that a monitor and keyboard are not detected in gh common room and staff assistance has been requested near the main entrance to the space at 14:06 case 2101',hostel,14,82,71,5,Lab_Equipment
'for the second time this week the lecture-room screen does not lower correctly in gate 1 without any warning notice and it interrupts scheduled teaching at 8:57 case 2102',outdoor,8,55,57,2,Infrastructure
'students report that the air conditioner stops cooling after midday in g3 the electrical supply needs inspection although nearby rooms remain usable at 8:58 case 2103',academic,8,63,76,1,Electrical
'for the second time this week water is collecting beneath the dispenser in ts12 the water service needs attention near the main entrance to the space at 17:01 case 2104',academic,17,63,65,4,Water
'today we noticed that network coverage disappears near the back rows in food court the network service is affected and staff assistance has been requested at 10:11 case 2106',food,10,42,60,1,Network
'during the latest session students cannot authenticate to the wireless network in cooler a while the area is moderately occupied and it interrupts scheduled teaching at 16:04 case 2107',utility,16,49,49,3,Network
'for the second time this week order processing has stopped at one counter in dining hall without any warning notice and several students are affected at 10:54 case 2108',food,10,65,65,5,Canteen
'a repeated observation is that the queue extends into the walking area in h5 corridor 1 the food service operation is affected and staff assistance has been requested at 14:42 case 2109',hostel,14,60,63,3,Canteen
'please investigate because the area has not been cleaned since the morning in cl15-a this is a hygiene and cleanliness concern and it interrupts scheduled teaching at 18:43 case 2110',lab,18,63,57,1,Cleanliness
'during the latest session students are waiting too long for food service in group study and the issue lasts more than ten minutes during a regular teaching period at 16:52 case 2111',library,16,39,49,1,Canteen
'please investigate because the projector loses its input after a few minutes in cs2 and staff assistance has been requested and the issue lasts more than ten minutes at 13:54 case 2112',academic,13,92,43,3,Infrastructure
'for the second time this week the help desk is closed during published hours in cr102 campus operations are being disrupted while the area is moderately occupied at 17:16 case 2113',academic,17,100,67,1,Other
'please investigate because several systems freeze during compilation in g6 laboratory equipment availability is affected and the condition has become more frequent at 14:14 case 2114',academic,14,47,56,4,Canteen
'please investigate because parking congestion is blocking access in basketball court and the issue lasts more than ten minutes and several students are affected at 13:29 case 2115',sports,13,87,54,1,Other
'today we noticed that the corridor has a persistent hygiene problem in h4 corridor 1 this is a hygiene and cleanliness concern and the issue lasts more than ten minutes at 13:34 case 2116',hostel,13,59,47,2,Cleanliness
'today we noticed that the corridor has a persistent hygiene problem in cs2 although nearby rooms remain usable and it interrupts scheduled teaching at 16:20 case 2117',academic,16,59,58,3,Cleanliness
'for the second time this week water is collecting beneath the dispenser in digital area without any warning notice and the issue lasts more than ten minutes at 12:48 case 2119',library,12,84,55,5,Water
'staff were informed that dust and litter remain around the workstations in h4 common room this is a hygiene and cleanliness concern and the issue lasts more than ten minutes at 14:07 case 2120',hostel,14,81,79,3,Cleanliness
'for the second time this week order processing has stopped at one counter in gym the food service operation is affected and several students are affected at 11:22 case 2121',sports,11,73,38,3,Canteen
'for the second time this week the lecture-room screen does not lower correctly in g5 the physical infrastructure needs attention after normal troubleshooting was attempted at 10:18 case 2122',academic,10,66,84,3,Infrastructure
'for the second time this week the wired connection cannot reach institute services in h4 corridor 1 and it interrupts scheduled teaching and several students are affected at 10:44 case 2124',hostel,10,67,75,2,Network
'please investigate because the campus network drops repeatedly during class in reception the network service is affected and staff assistance has been requested at 8:21 case 2126',office,8,46,80,5,Network
'staff were informed that billing and collection lines are merging into one queue in cl22-a and it interrupts scheduled teaching and several students are affected at 17:01 case 2127',lab,17,43,60,3,Canteen
'staff were informed that a tap continues running after it is closed in cs2 during a regular teaching period and several students are affected at 18:12 case 2128',academic,18,60,39,5,Water
'please investigate because the service queue is moving very slowly in cl3-b while another campus service remains normal while the area is moderately occupied at 16:59 case 2129',lab,16,73,56,2,Canteen
'staff were informed that billing and collection lines are merging into one queue in billing counter after normal troubleshooting was attempted and the issue lasts more than ten minutes at 13:29 case 2130',food,13,73,50,2,Canteen
'an urgent maintenance check is needed because video lectures buffer on the campus connection in academic office without any warning notice without any warning notice at 12:02 case 2131',office,12,50,51,2,Network
'please investigate because the projector loses its input after a few minutes in academic office after normal troubleshooting was attempted and it interrupts scheduled teaching at 15:46 case 2132',office,15,98,48,3,Infrastructure
'please investigate because the projector loses its input after a few minutes in g3 during a regular teaching period although nearby rooms remain usable at 18:46 case 2133',academic,18,26,55,4,Infrastructure
'staff were informed that the writing surface is damaged and difficult to use in g5 the physical infrastructure needs attention while another campus service remains normal at 11:41 case 2134',academic,11,75,76,3,Infrastructure
'during the latest session the classroom door cannot close safely in g2 and several students are affected and it interrupts scheduled teaching at 18:41 case 2135',academic,18,81,63,2,Infrastructure
'please investigate because several systems freeze during compilation in ts12 near the main entrance to the space and several students are affected at 14:01 case 2136',academic,14,62,63,4,Lab_Equipment
'staff were informed that dust and litter remain around the workstations in ece-202 and the condition has become more frequent and the condition has become more frequent at 10:37 case 2137',lab,10,46,50,2,Cleanliness
'during the latest session the workstation cannot boot for the practical in cl15-b near the main entrance to the space and the issue lasts more than ten minutes at 15:33 case 2138',lab,15,35,68,1,Lab_Equipment
'please investigate because several systems freeze during compilation in cl15-a laboratory equipment availability is affected during a regular teaching period at 17:11 case 2139',lab,17,58,46,2,Lab_Equipment
'students report that several desks have loose or damaged fittings in g6 and the issue lasts more than ten minutes and the issue lasts more than ten minutes at 11:22 case 2140',academic,11,100,46,3,Infrastructure
'students report that the wifi signal is unstable for several devices in cl22-a without any warning notice near the main entrance to the space at 15:20 case 2141',lab,15,86,46,2,Network
'staff were informed that the experiment console does not record readings in g2 after normal troubleshooting was attempted near the main entrance to the space at 8:29 case 2142',academic,8,100,58,2,Lab_Equipment
'students report that the air conditioner stops cooling after midday in cl3-a the electrical supply needs inspection while the area is moderately occupied at 18:52 case 2143',lab,18,66,80,4,Electrical
'please investigate because the campus network drops repeatedly during class in cl3-a during a regular teaching period although nearby rooms remain usable at 13:49 case 2144',lab,13,38,66,2,Network
'staff were informed that billing and collection lines are merging into one queue in ts18 without any warning notice while the area is moderately occupied at 11:04 case 2145',academic,11,89,37,2,Canteen
'for the second time this week order processing has stopped at one counter in h5 common room after normal troubleshooting was attempted and the condition has become more frequent at 15:04 case 2147',hostel,15,53,57,3,Canteen
'during the latest session the classroom door cannot close safely in cl15-b without any warning notice and several students are affected at 14:56 case 2148',lab,14,69,60,2,Infrastructure
'a repeated observation is that a power socket is loose and unsafe in h5 corridor 1 the electrical supply needs inspection without any warning notice at 10:41 case 2149',hostel,10,81,78,4,Electrical
'for the second time this week water is collecting beneath the dispenser in ts17 while another campus service remains normal and the issue lasts more than ten minutes at 17:20 case 2150',academic,17,81,69,3,Water
'for the second time this week order processing has stopped at one counter in security post while the area is moderately occupied and the issue lasts more than ten minutes at 14:31 case 2151',outdoor,14,77,58,2,Canteen
'for the second time this week the help desk is closed during published hours in ff6 without any warning notice while the area is moderately occupied at 9:35 case 2154',academic,9,63,41,5,Other
'during the latest session students cannot authenticate to the wireless network in cr102 while another campus service remains normal and several students are affected at 11:41 case 2155',academic,11,71,57,1,Network
'during the latest session a spill has made the floor slippery in h5 corridor 2 although nearby rooms remain usable without any warning notice at 9:00 case 2156',hostel,9,39,31,3,Water
'students report that the air conditioner stops cooling after midday in g2 the electrical supply needs inspection and staff assistance has been requested at 17:49 case 2157',academic,17,32,77,4,Electrical
'today we noticed that the notice board contains outdated information in ts18 campus operations are being disrupted and the issue lasts more than ten minutes at 12:33 case 2158',academic,12,25,76,3,Other
'students report that the wifi signal is unstable for several devices in cs2 the network service is affected although nearby rooms remain usable at 8:52 case 2159',academic,8,66,38,3,Network
'please investigate because the drinking-water dispenser is empty in gate 1 while another campus service remains normal and several students are affected at 8:41 case 2160',outdoor,8,23,69,3,Water
'today we noticed that multiple computers show storage errors in h5 corridor 1 and it interrupts scheduled teaching without any warning notice at 8:29 case 2162',hostel,8,67,53,2,Lab_Equipment
'for the second time this week the cleaning schedule appears to have been missed in cs1 and staff assistance has been requested and it interrupts scheduled teaching at 12:20 case 2163',academic,12,62,66,2,Cleanliness
'a repeated observation is that the wash area needs urgent sanitation in group study this is a hygiene and cleanliness concern and the issue lasts more than ten minutes at 18:11 case 2164',library,18,55,82,3,Cleanliness
'during the latest session water pressure is too low for normal use in h4 corridor 2 during a regular teaching period during a regular teaching period at 16:33 case 2165',hostel,16,70,48,1,Water
'an urgent maintenance check is needed because the filtration unit shows a service warning in gh common room without any warning notice without any warning notice at 16:20 case 2166',hostel,16,46,48,3,Water
'for the second time this week the device driver is missing from the workstation in reception while another campus service remains normal while the area is moderately occupied at 12:10 case 2167',office,12,66,53,2,Lab_Equipment
'for the second time this week the cleaning schedule appears to have been missed in cs2 this is a hygiene and cleanliness concern and several students are affected at 17:44 case 2168',academic,17,73,53,1,Cleanliness
'an urgent maintenance check is needed because standing water is creating an unhygienic patch in ff6 this is a hygiene and cleanliness concern and the issue lasts more than ten minutes at 15:41 case 2169',academic,15,62,72,1,Cleanliness
'during the latest session students are waiting too long for food service in academic office the food service operation is affected and the condition has become more frequent at 10:10 case 2170',office,10,24,61,3,Canteen
'during the latest session the workstation cannot boot for the practical in cl3-b and the condition has become more frequent during a regular teaching period at 18:53 case 2171',lab,18,40,40,3,Lab_Equipment
'a repeated observation is that internet speed falls below a usable level in gh common room the network service is affected and staff assistance has been requested at 13:38 case 2172',hostel,13,82,36,4,Water
'for the second time this week the lecture-room screen does not lower correctly in billing counter the physical infrastructure needs attention and it interrupts scheduled teaching at 16:32 case 2173',food,16,70,57,2,Infrastructure
'staff were informed that an electrical panel is making an unusual sound in g5 the electrical supply needs inspection and staff assistance has been requested at 18:11 case 2174',academic,18,66,51,3,Electrical
'please investigate because the campus network drops repeatedly during class in ts12 the network service is affected and staff assistance has been requested at 8:36 case 2175',academic,8,83,48,4,Network
'for the second time this week the cleaning schedule appears to have been missed in ff6 this is a hygiene and cleanliness concern and staff assistance has been requested at 16:11 case 2176',academic,16,72,78,3,Cleanliness
'for the second time this week the wired connection cannot reach institute services in ff6 and the condition has become more frequent and the condition has become more frequent at 15:08 case 2177',academic,15,39,49,1,Network
'staff were informed that online resources time out during the session in cl22-b the network service is affected without any warning notice at 11:06 case 2178',lab,11,96,64,2,Network
'students report that the air conditioner stops cooling after midday in basketball court the electrical supply needs inspection during a regular teaching period at 15:08 case 2179',sports,15,67,81,2,Electrical
'during the latest session students cannot authenticate to the wireless network in cl15-b after normal troubleshooting was attempted while the area is moderately occupied at 11:49 case 2180',lab,11,91,60,2,Network
'a repeated observation is that laboratory equipment reports a calibration error in group study laboratory equipment availability is affected near the main entrance to the space at 8:03 case 2181',library,8,46,58,2,Lab_Equipment
'staff were informed that dust and litter remain around the workstations in cl3-a and the issue lasts more than ten minutes after normal troubleshooting was attempted at 16:23 case 2182',lab,16,66,81,4,Cleanliness
'for the second time this week the ventilation fan does not start in h5 corridor 2 the electrical supply needs inspection and the issue lasts more than ten minutes at 16:56 case 2185',hostel,16,70,65,3,Electrical
'today we noticed that multiple computers show storage errors in h4 common room while the area is moderately occupied and the condition has become more frequent at 8:58 case 2186',hostel,8,87,50,1,Lab_Equipment
'an urgent maintenance check is needed because the filtration unit shows a service warning in gh corridor 1 the water service needs attention and several students are affected at 16:11 case 2187',hostel,16,64,32,4,Water
'a repeated observation is that the wash area needs urgent sanitation in washroom g while the area is moderately occupied without any warning notice at 18:31 case 2188',utility,18,51,69,3,Cleanliness
'today we noticed that seating capacity is insufficient during the meal break in h4 corridor 1 the food service operation is affected near the main entrance to the space at 13:52 case 2189',hostel,13,37,65,1,Canteen
'during the latest session lights flicker repeatedly during use in group study the electrical supply needs inspection while another campus service remains normal at 12:43 case 2190',library,12,62,59,4,Electrical
'please investigate because the campus network drops repeatedly during class in ts12 the network service is affected and the condition has become more frequent at 11:57 case 2191',academic,11,55,21,3,Network
'staff were informed that the writing surface is damaged and difficult to use in ece-201 during a regular teaching period near the main entrance to the space at 17:41 case 2192',lab,17,48,54,3,Infrastructure
'today we noticed that multiple computers show storage errors in gh corridor 1 although nearby rooms remain usable while the area is moderately occupied at 8:26 case 2193',hostel,8,51,53,3,Lab_Equipment
'staff were informed that online resources time out during the session in ts18 while the area is moderately occupied after normal troubleshooting was attempted at 12:53 case 2194',academic,12,74,52,1,Network
'a repeated observation is that the queue extends into the walking area in backstage near the main entrance to the space and the condition has become more frequent at 13:38 case 2195',common,13,86,72,5,Canteen
'during the latest session students cannot authenticate to the wireless network in cooler b the network service is affected and several students are affected at 14:33 case 2196',utility,14,100,48,2,Network
'a repeated observation is that the display cable and wall port need repair in indoor court while the area is moderately occupied without any warning notice at 13:20 case 2197',sports,13,53,47,1,Infrastructure
'today we noticed that the notice board contains outdated information in g5 and the issue lasts more than ten minutes while another campus service remains normal at 15:34 case 2198',academic,15,43,60,3,Other
'during the latest session lights flicker repeatedly during use in cl22-b and several students are affected and the condition has become more frequent at 15:59 case 2199',lab,15,38,72,2,Electrical
'staff were informed that billing and collection lines are merging into one queue in counter a and it interrupts scheduled teaching although nearby rooms remain usable at 17:57 case 2200',food,17,38,52,1,Canteen
'staff were informed that the experiment console does not record readings in cl1-a and the issue lasts more than ten minutes without any warning notice at 12:02 case 2204',lab,12,65,52,3,Lab_Equipment
'a repeated observation is that the display cable and wall port need repair in main hall the physical infrastructure needs attention and the condition has become more frequent at 13:55 case 2205',common,13,60,42,2,Infrastructure
'today we noticed that the corridor has a persistent hygiene problem in ts11 this is a hygiene and cleanliness concern near the main entrance to the space at 18:51 case 2206',academic,18,56,53,1,Cleanliness
'today we noticed that charging points are unavailable in group study and the condition has become more frequent although nearby rooms remain usable at 15:11 case 2207',library,15,63,49,4,Electrical
'students report that a monitor and keyboard are not detected in main hall laboratory equipment availability is affected although nearby rooms remain usable at 8:56 case 2208',common,8,75,71,5,Lab_Equipment
'staff were informed that dust and litter remain around the workstations in student parking this is a hygiene and cleanliness concern and it interrupts scheduled teaching at 10:10 case 2209',outdoor,10,77,68,5,Cleanliness
'staff were informed that the experiment console does not record readings in cl3-b laboratory equipment availability is affected and the condition has become more frequent at 17:32 case 2210',lab,17,36,54,4,Lab_Equipment
'students report that the wifi signal is unstable for several devices in dining hall without any warning notice during a regular teaching period at 9:09 case 2212',food,9,88,50,3,Network
'an urgent maintenance check is needed because a switchboard becomes warm during operation in group study the electrical supply needs inspection without any warning notice at 17:19 case 2213',library,17,59,38,3,Electrical
'please investigate because parking congestion is blocking access in indoor court campus operations are being disrupted near the main entrance to the space at 18:16 case 2215',sports,18,64,43,1,Lab_Equipment
'today we noticed that charging points are unavailable in g3 and the condition has become more frequent after normal troubleshooting was attempted at 10:42 case 2217',academic,10,52,73,4,Electrical
'a repeated observation is that internet speed falls below a usable level in basketball court after normal troubleshooting was attempted although nearby rooms remain usable at 9:31 case 2218',sports,9,78,76,2,Network
'during the latest session students cannot authenticate to the wireless network in cl3-b the network service is affected and the issue lasts more than ten minutes at 17:44 case 2220',lab,17,96,35,3,Network
'today we noticed that the notice board contains outdated information in cooler b campus operations are being disrupted and it interrupts scheduled teaching at 18:12 case 2221',utility,18,26,32,3,Other
'today we noticed that network coverage disappears near the back rows in security post the network service is affected near the main entrance to the space at 10:05 case 2222',outdoor,10,41,53,4,Network
'for the second time this week the lecture-room screen does not lower correctly in cs1 without any warning notice and several students are affected at 15:47 case 2225',academic,15,49,67,2,Infrastructure
'staff were informed that the experiment console does not record readings in cl1-a laboratory equipment availability is affected and the issue lasts more than ten minutes at 9:21 case 2226',lab,9,81,66,3,Lab_Equipment
'please investigate because the service queue is moving very slowly in gate 1 while another campus service remains normal while the area is moderately occupied at 13:36 case 2227',outdoor,13,88,41,4,Canteen
'please investigate because the projector loses its input after a few minutes in h4 corridor 1 the physical infrastructure needs attention without any warning notice at 11:54 case 2228',hostel,11,70,71,1,Infrastructure
'during the latest session students cannot authenticate to the wireless network in food court and the issue lasts more than ten minutes near the main entrance to the space at 8:47 case 2229',food,8,66,41,3,Network
'for the second time this week water is collecting beneath the dispenser in cr102 the water service needs attention although nearby rooms remain usable at 17:36 case 2231',academic,17,58,20,5,Water
'an urgent maintenance check is needed because video lectures buffer on the campus connection in billing counter the network service is affected and the condition has become more frequent at 9:46 case 2232',food,9,58,54,2,Network
'an urgent maintenance check is needed because video lectures buffer on the campus connection in food court while another campus service remains normal and the issue lasts more than ten minutes at 11:09 case 2234',food,11,92,55,4,Network
'staff were informed that online resources time out during the session in cl15-a the network service is affected and several students are affected at 18:52 case 2235',lab,18,53,66,2,Network
'an urgent maintenance check is needed because the lunch rush is blocking the entrance in g3 the food service operation is affected without any warning notice at 15:41 case 2236',academic,15,82,95,5,Canteen
'staff were informed that billing and collection lines are merging into one queue in student parking and staff assistance has been requested and several students are affected at 9:21 case 2237',outdoor,9,100,46,2,Canteen
'staff were informed that dust and litter remain around the workstations in ts18 this is a hygiene and cleanliness concern and it interrupts scheduled teaching at 16:59 case 2239',academic,16,40,40,3,Cleanliness
'a repeated observation is that the queue extends into the walking area in gh corridor 1 and the issue lasts more than ten minutes and the condition has become more frequent at 13:29 case 2240',hostel,13,94,67,4,Canteen
'please investigate because the service queue is moving very slowly in gate 1 the food service operation is affected while another campus service remains normal at 17:33 case 2241',outdoor,17,48,70,4,Canteen
'students report that the air conditioner stops cooling after midday in ts18 and the issue lasts more than ten minutes near the main entrance to the space at 15:33 case 2242',academic,15,80,76,1,Cleanliness
'for the second time this week the device driver is missing from the workstation in cr201 laboratory equipment availability is affected after normal troubleshooting was attempted at 13:34 case 2243',academic,13,96,44,2,Lab_Equipment
'today we noticed that ceiling plaster appears loose near the entrance in cl15-a the physical infrastructure needs attention and several students are affected at 9:44 case 2244',lab,9,62,79,1,Infrastructure
'for the second time this week the wired connection cannot reach institute services in g3 the network service is affected and staff assistance has been requested at 10:01 case 2245',academic,10,61,37,3,Network
'a repeated observation is that the queue extends into the walking area in h4 common room the food service operation is affected while another campus service remains normal at 16:11 case 2246',hostel,16,80,73,1,Canteen
'an urgent maintenance check is needed because the lunch rush is blocking the entrance in washroom 1 without any warning notice and staff assistance has been requested at 16:13 case 2247',utility,16,68,61,5,Canteen
'during the latest session the workstation cannot boot for the practical in digital area laboratory equipment availability is affected although nearby rooms remain usable at 13:24 case 2248',library,13,85,52,2,Lab_Equipment
'during the latest session a spill has made the floor slippery in ts11 and staff assistance has been requested and several students are affected at 9:21 case 2249',academic,9,44,55,3,Cleanliness
'an urgent maintenance check is needed because pedestrian movement is restricted by stored material in digital area campus operations are being disrupted without any warning notice at 13:19 case 2250',library,13,58,51,3,Other
'a repeated observation is that a power socket is loose and unsafe in h5 corridor 1 while another campus service remains normal and several students are affected at 9:25 case 2251',hostel,9,71,51,5,Electrical
'today we noticed that seating capacity is insufficient during the meal break in h5 common room the food service operation is affected after normal troubleshooting was attempted at 11:30 case 2252',hostel,11,74,52,1,Canteen
'for the second time this week order processing has stopped at one counter in dining hall the food service operation is affected near the main entrance to the space at 15:44 case 2253',food,15,49,35,1,Canteen
'staff were informed that the writing surface is damaged and difficult to use in backstage during a regular teaching period and the condition has become more frequent at 17:52 case 2254',common,17,56,78,3,Infrastructure
'during the latest session the workstation cannot boot for the practical in digital area laboratory equipment availability is affected although nearby rooms remain usable at 8:01 case 2255',library,8,40,55,3,Cleanliness
'during the latest session students cannot authenticate to the wireless network in billing counter the network service is affected and it interrupts scheduled teaching at 17:18 case 2256',food,17,50,55,3,Network
'students report that waste bins are overflowing into the corridor in cr425 near the main entrance to the space near the main entrance to the space at 11:53 case 2258',academic,11,33,69,4,Cleanliness
'an urgent maintenance check is needed because a switchboard becomes warm during operation in cs1 the electrical supply needs inspection and several students are affected at 11:16 case 2259',academic,11,50,81,1,Electrical
'a repeated observation is that the wash area needs urgent sanitation in g1 this is a hygiene and cleanliness concern although nearby rooms remain usable at 8:55 case 2260',academic,8,45,58,2,Cleanliness
'please investigate because the projector loses its input after a few minutes in cl15-b the physical infrastructure needs attention during a regular teaching period at 13:36 case 2261',lab,13,44,45,3,Infrastructure
'please investigate because the campus network drops repeatedly during class in cr102 near the main entrance to the space and the condition has become more frequent at 14:02 case 2262',academic,14,77,68,2,Network
'please investigate because the service queue is moving very slowly in cl15-b the food service operation is affected near the main entrance to the space at 15:00 case 2264',lab,15,70,65,2,Canteen
'students report that several desks have loose or damaged fittings in basketball court the physical infrastructure needs attention after normal troubleshooting was attempted at 11:10 case 2265',sports,11,76,40,3,Infrastructure
'students report that several desks have loose or damaged fittings in washroom 1 the physical infrastructure needs attention and the issue lasts more than ten minutes at 8:19 case 2266',utility,8,38,57,1,Infrastructure
'during the latest session the common area is overcrowded in g2 and the condition has become more frequent near the main entrance to the space at 16:02 case 2267',academic,16,63,81,2,Other
'today we noticed that the notice board contains outdated information in dining hall campus operations are being disrupted while the area is moderately occupied at 16:10 case 2268',food,16,37,63,2,Other
'staff were informed that an electrical panel is making an unusual sound in cl1-b the electrical supply needs inspection without any warning notice at 10:22 case 2269',lab,10,39,71,5,Electrical
'during the latest session lights flicker repeatedly during use in g2 although nearby rooms remain usable although nearby rooms remain usable at 13:37 case 2270',academic,13,64,63,2,Electrical
'students report that a monitor and keyboard are not detected in washroom 1 laboratory equipment availability is affected while the area is moderately occupied at 13:05 case 2271',utility,13,83,54,2,Lab_Equipment
'for the second time this week the ventilation fan does not start in g5 although nearby rooms remain usable and the condition has become more frequent at 16:04 case 2272',academic,16,60,74,5,Electrical
'staff were informed that the writing surface is damaged and difficult to use in ff6 near the main entrance to the space without any warning notice at 13:08 case 2273',academic,13,90,63,5,Infrastructure
'today we noticed that multiple computers show storage errors in cl22-a laboratory equipment availability is affected during a regular teaching period at 17:01 case 2274',lab,17,56,60,2,Lab_Equipment
'a repeated observation is that the display cable and wall port need repair in h4 corridor 1 while another campus service remains normal while the area is moderately occupied at 12:42 case 2275',hostel,12,80,34,5,Infrastructure
'students report that waste bins are overflowing into the corridor in indoor court and the issue lasts more than ten minutes although nearby rooms remain usable at 8:48 case 2276',sports,8,61,54,1,Cleanliness
'during the latest session the common area is overcrowded in reading hall and several students are affected near the main entrance to the space at 15:12 case 2278',library,15,74,49,2,Other
'an urgent maintenance check is needed because signage for the room is missing in visitor parking near the main entrance to the space and the issue lasts more than ten minutes at 18:30 case 2279',outdoor,18,65,81,4,Infrastructure
'today we noticed that seating capacity is insufficient during the meal break in cl22-a near the main entrance to the space and the condition has become more frequent at 14:25 case 2280',lab,14,82,47,2,Canteen
'please investigate because the service queue is moving very slowly in reception the food service operation is affected and it interrupts scheduled teaching at 15:21 case 2281',office,15,50,24,3,Canteen
'an urgent maintenance check is needed because the filtration unit shows a service warning in cs1 while another campus service remains normal during a regular teaching period at 13:18 case 2282',academic,13,63,67,1,Water
'staff were informed that an unattended item is obstructing the walkway in gate 1 campus operations are being disrupted while the area is moderately occupied at 11:54 case 2283',outdoor,11,47,80,2,Other
'today we noticed that ceiling plaster appears loose near the entrance in indoor court the physical infrastructure needs attention and the issue lasts more than ten minutes at 15:30 case 2286',sports,15,56,95,3,Infrastructure
'students report that several desks have loose or damaged fittings in main hall and the issue lasts more than ten minutes although nearby rooms remain usable at 17:15 case 2287',common,17,44,69,2,Infrastructure
'please investigate because parking congestion is blocking access in h5 corridor 2 campus operations are being disrupted after normal troubleshooting was attempted at 16:42 case 2288',hostel,16,31,41,4,Other
'students report that the wifi signal is unstable for several devices in ece-201 the network service is affected and it interrupts scheduled teaching at 8:56 case 2289',lab,8,89,64,1,Network
'please investigate because the campus network drops repeatedly during class in g5 the network service is affected after normal troubleshooting was attempted at 10:17 case 2290',academic,10,77,59,3,Other
'a repeated observation is that the nearest water point is not operational in cs1 the water service needs attention while the area is moderately occupied at 16:51 case 2291',academic,16,66,88,2,Water
'during the latest session water pressure is too low for normal use in h4 corridor 1 the water service needs attention after normal troubleshooting was attempted at 12:47 case 2292',hostel,12,84,48,3,Network
'today we noticed that the refill indicator has remained empty in security post the water service needs attention near the main entrance to the space at 12:45 case 2293',outdoor,12,54,44,2,Water
'an urgent maintenance check is needed because signage for the room is missing in gh corridor 1 the physical infrastructure needs attention and several students are affected at 15:04 case 2294',hostel,15,41,28,5,Infrastructure
'during the latest session the workstation cannot boot for the practical in ts17 after normal troubleshooting was attempted after normal troubleshooting was attempted at 12:21 case 2295',academic,12,69,55,2,Lab_Equipment
'for the second time this week the wired connection cannot reach institute services in ece-201 the network service is affected while another campus service remains normal at 16:19 case 2296',lab,16,100,84,4,Other
'a repeated observation is that a power socket is loose and unsafe in h5 corridor 2 and the issue lasts more than ten minutes after normal troubleshooting was attempted at 15:06 case 2297',hostel,15,55,62,2,Electrical
'for the second time this week the cleaning schedule appears to have been missed in h4 corridor 2 and it interrupts scheduled teaching near the main entrance to the space at 14:15 case 2298',hostel,14,77,40,5,Cleanliness
'staff were informed that dust and litter remain around the workstations in washroom 1 this is a hygiene and cleanliness concern and the issue lasts more than ten minutes at 11:30 case 2299',utility,11,100,53,3,Cleanliness
'today we noticed that seating capacity is insufficient during the meal break in g2 and several students are affected and the issue lasts more than ten minutes at 10:33 case 2300',academic,10,23,58,2,Canteen
'a repeated observation is that internet speed falls below a usable level in digital area the network service is affected and the issue lasts more than ten minutes at 15:18 case 2301',library,15,43,48,3,Network
'today we noticed that the notice board contains outdated information in security post during a regular teaching period and several students are affected at 18:29 case 2302',outdoor,18,53,68,5,Other
'during the latest session students cannot authenticate to the wireless network in cr202 without any warning notice without any warning notice at 13:45 case 2304',academic,13,76,68,2,Network
'a repeated observation is that the wash area needs urgent sanitation in gh common room during a regular teaching period near the main entrance to the space at 12:06 case 2305',hostel,12,8,44,1,Cleanliness
'an urgent maintenance check is needed because standing water is creating an unhygienic patch in group study while the area is moderately occupied while the area is moderately occupied at 16:56 case 2306',library,16,100,50,1,Cleanliness
'please investigate because the ceiling fans are not operating in student parking although nearby rooms remain usable after normal troubleshooting was attempted at 18:57 case 2307',outdoor,18,74,83,3,Electrical
'students report that several desks have loose or damaged fittings in g6 while the area is moderately occupied and the condition has become more frequent at 12:24 case 2311',academic,12,91,72,1,Infrastructure
'today we noticed that network coverage disappears near the back rows in ts12 after normal troubleshooting was attempted and the condition has become more frequent at 8:36 case 2312',academic,8,52,38,4,Network
'a repeated observation is that a power socket is loose and unsafe in digital area during a regular teaching period and staff assistance has been requested at 18:26 case 2314',library,18,47,26,3,Electrical
'during the latest session students are waiting too long for food service in ts11 and several students are affected although nearby rooms remain usable at 9:03 case 2315',academic,9,54,47,5,Canteen
'today we noticed that network coverage disappears near the back rows in h5 corridor 1 while the area is moderately occupied while the area is moderately occupied at 18:47 case 2316',hostel,18,93,57,1,Network
'staff were informed that the writing surface is damaged and difficult to use in visitor parking the physical infrastructure needs attention without any warning notice at 8:31 case 2317',outdoor,8,75,44,4,Electrical
'students report that waste bins are overflowing into the corridor in student parking while another campus service remains normal while the area is moderately occupied at 10:26 case 2318',outdoor,10,43,46,4,Cleanliness
'today we noticed that the corridor has a persistent hygiene problem in ece-201 this is a hygiene and cleanliness concern while another campus service remains normal at 13:38 case 2320',lab,13,71,40,4,Cleanliness
'staff were informed that an unattended item is obstructing the walkway in cs2 while the area is moderately occupied and it interrupts scheduled teaching at 15:03 case 2322',academic,15,92,77,1,Other
'a repeated observation is that laboratory equipment reports a calibration error in h5 common room and the condition has become more frequent and the issue lasts more than ten minutes at 8:40 case 2323',hostel,8,58,51,3,Lab_Equipment
'a repeated observation is that internet speed falls below a usable level in basketball court the network service is affected and staff assistance has been requested at 17:13 case 2324',sports,17,51,47,2,Network
'today we noticed that charging points are unavailable in gate 1 the electrical supply needs inspection and it interrupts scheduled teaching at 11:19 case 2325',outdoor,11,39,70,4,Electrical
'please investigate because the area has not been cleaned since the morning in cooler a this is a hygiene and cleanliness concern and the condition has become more frequent at 10:27 case 2327',utility,10,15,90,3,Cleanliness
'please investigate because the service queue is moving very slowly in billing counter during a regular teaching period and the issue lasts more than ten minutes at 12:34 case 2328',food,12,75,46,3,Canteen
'staff were informed that an electrical panel is making an unusual sound in h4 corridor 1 the electrical supply needs inspection although nearby rooms remain usable at 9:02 case 2329',hostel,9,16,70,3,Electrical
'please investigate because the area has not been cleaned since the morning in cooler a this is a hygiene and cleanliness concern during a regular teaching period at 17:31 case 2331',utility,17,49,46,4,Cleanliness
'an urgent maintenance check is needed because the lunch rush is blocking the entrance in cr101 and it interrupts scheduled teaching and the condition has become more frequent at 8:57 case 2332',academic,8,68,50,3,Canteen
'staff were informed that dust and litter remain around the workstations in academic office while the area is moderately occupied without any warning notice at 17:16 case 2333',office,17,64,34,1,Cleanliness
'a repeated observation is that the wash area needs urgent sanitation in student parking although nearby rooms remain usable while another campus service remains normal at 12:46 case 2334',outdoor,12,51,38,2,Cleanliness
'an urgent maintenance check is needed because the filtration unit shows a service warning in h5 corridor 1 the water service needs attention and several students are affected at 18:01 case 2335',hostel,18,89,73,3,Water
'an urgent maintenance check is needed because a switchboard becomes warm during operation in gym the electrical supply needs inspection near the main entrance to the space at 15:29 case 2336',sports,15,38,61,2,Electrical
'a repeated observation is that a power socket is loose and unsafe in food court the electrical supply needs inspection without any warning notice at 12:48 case 2337',food,12,68,48,1,Electrical
'please investigate because the area has not been cleaned since the morning in cr101 this is a hygiene and cleanliness concern after normal troubleshooting was attempted at 17:48 case 2338',academic,17,74,38,3,Cleanliness
'please investigate because the service queue is moving very slowly in indoor court the food service operation is affected near the main entrance to the space at 18:29 case 2339',sports,18,51,50,3,Canteen
'for the second time this week the lecture-room screen does not lower correctly in g2 the physical infrastructure needs attention and the issue lasts more than ten minutes at 18:14 case 2340',academic,18,68,87,2,Infrastructure
'please investigate because the campus network drops repeatedly during class in cl15-b the network service is affected and the issue lasts more than ten minutes at 16:57 case 2341',lab,16,54,68,4,Network
'please investigate because parking congestion is blocking access in billing counter campus operations are being disrupted and staff assistance has been requested at 18:37 case 2342',food,18,64,70,2,Other
'staff were informed that an electrical panel is making an unusual sound in washroom g the electrical supply needs inspection and the issue lasts more than ten minutes at 8:27 case 2344',utility,8,71,70,4,Electrical
'staff were informed that an electrical panel is making an unusual sound in cr101 although nearby rooms remain usable while the area is moderately occupied at 10:25 case 2345',academic,10,66,62,2,Electrical
'staff were informed that billing and collection lines are merging into one queue in counter a the food service operation is affected and the condition has become more frequent at 10:52 case 2346',food,10,66,47,3,Canteen
'staff were informed that online resources time out during the session in g1 and the condition has become more frequent and staff assistance has been requested at 14:56 case 2347',academic,14,43,66,2,Network
'for the second time this week the lecture-room screen does not lower correctly in cs1 during a regular teaching period and staff assistance has been requested at 13:42 case 2348',academic,13,70,78,4,Infrastructure
'please investigate because the campus network drops repeatedly during class in g5 without any warning notice without any warning notice at 9:08 case 2349',academic,9,36,57,2,Network
'staff were informed that online resources time out during the session in academic office while the area is moderately occupied and it interrupts scheduled teaching at 14:52 case 2350',office,14,56,26,1,Network
'during the latest session students are waiting too long for food service in cr201 the food service operation is affected and staff assistance has been requested at 14:43 case 2352',academic,14,64,43,1,Canteen
'an urgent maintenance check is needed because video lectures buffer on the campus connection in gh common room near the main entrance to the space and staff assistance has been requested at 11:31 case 2353',hostel,11,100,57,4,Network
'an urgent maintenance check is needed because video lectures buffer on the campus connection in cr101 the network service is affected and the condition has become more frequent at 15:20 case 2354',academic,15,46,68,2,Network
'for the second time this week order processing has stopped at one counter in g5 the food service operation is affected near the main entrance to the space at 16:50 case 2355',academic,16,59,64,4,Canteen
'students report that several desks have loose or damaged fittings in cr201 the physical infrastructure needs attention and the condition has become more frequent at 12:44 case 2356',academic,12,100,65,2,Infrastructure
'students report that a monitor and keyboard are not detected in cl22-b while the area is moderately occupied although nearby rooms remain usable at 9:20 case 2357',lab,9,49,47,4,Lab_Equipment
'today we noticed that the refill indicator has remained empty in cr102 the water service needs attention and the issue lasts more than ten minutes at 16:50 case 2360',academic,16,87,42,4,Water
'today we noticed that network coverage disappears near the back rows in student parking while another campus service remains normal and the issue lasts more than ten minutes at 15:04 case 2361',outdoor,15,18,60,2,Network
'please investigate because parking congestion is blocking access in counter a campus operations are being disrupted and the issue lasts more than ten minutes at 14:59 case 2362',food,14,96,60,1,Other
'staff were informed that online resources time out during the session in cr202 the network service is affected while the area is moderately occupied at 8:57 case 2363',academic,8,76,39,2,Network
'please investigate because the campus network drops repeatedly during class in ts11 while another campus service remains normal and the condition has become more frequent at 15:34 case 2364',academic,15,60,67,2,Network
'for the second time this week the wired connection cannot reach institute services in dining hall while the area is moderately occupied without any warning notice at 11:54 case 2365',food,11,64,95,2,Network
'please investigate because the ceiling fans are not operating in h5 common room the electrical supply needs inspection near the main entrance to the space at 15:47 case 2366',hostel,15,74,27,1,Electrical
'today we noticed that charging points are unavailable in cl3-a the electrical supply needs inspection while another campus service remains normal at 8:53 case 2367',lab,8,35,75,4,Lab_Equipment
'a repeated observation is that internet speed falls below a usable level in ts12 near the main entrance to the space and it interrupts scheduled teaching at 15:38 case 2368',academic,15,68,25,2,Network
'staff were informed that billing and collection lines are merging into one queue in ts17 the food service operation is affected during a regular teaching period at 10:10 case 2369',academic,10,95,55,4,Canteen
'during the latest session a spill has made the floor slippery in cl1-a this is a hygiene and cleanliness concern during a regular teaching period at 14:54 case 2370',lab,14,59,71,3,Cleanliness
'a repeated observation is that the nearest water point is not operational in h4 corridor 1 the water service needs attention after normal troubleshooting was attempted at 17:12 case 2371',hostel,17,74,37,1,Water
'a repeated observation is that a campus service is unavailable without an explanation in g2 campus operations are being disrupted without any warning notice at 9:53 case 2372',academic,9,50,60,3,Other
'for the second time this week the wired connection cannot reach institute services in ts11 the network service is affected while the area is moderately occupied at 18:27 case 2373',academic,18,38,34,3,Network
'for the second time this week the wired connection cannot reach institute services in indoor court the network service is affected during a regular teaching period at 12:06 case 2374',sports,12,69,80,2,Network
'during the latest session the classroom door cannot close safely in gh common room the physical infrastructure needs attention although nearby rooms remain usable at 9:20 case 2375',hostel,9,66,47,2,Infrastructure
'an urgent maintenance check is needed because standing water is creating an unhygienic patch in h5 corridor 2 this is a hygiene and cleanliness concern while another campus service remains normal at 17:10 case 2376',hostel,17,69,57,2,Cleanliness
'today we noticed that network coverage disappears near the back rows in ts12 during a regular teaching period near the main entrance to the space at 9:01 case 2377',academic,9,42,57,2,Network
'an urgent maintenance check is needed because the lunch rush is blocking the entrance in dining hall the food service operation is affected and several students are affected at 12:55 case 2378',food,12,68,53,2,Canteen
'an urgent maintenance check is needed because video lectures buffer on the campus connection in billing counter during a regular teaching period although nearby rooms remain usable at 17:37 case 2379',food,17,43,37,1,Network
'a repeated observation is that a power socket is loose and unsafe in cooler a and the issue lasts more than ten minutes and the issue lasts more than ten minutes at 17:41 case 2380',utility,17,51,82,1,Electrical
'an urgent maintenance check is needed because a switchboard becomes warm during operation in cl22-a and several students are affected after normal troubleshooting was attempted at 18:04 case 2381',lab,18,50,51,2,Electrical
'an urgent maintenance check is needed because the lunch rush is blocking the entrance in h5 corridor 2 the food service operation is affected and the issue lasts more than ten minutes at 10:02 case 2382',hostel,10,38,42,4,Canteen
'students report that only one billing counter is open during the rush in cs2 near the main entrance to the space and the condition has become more frequent at 13:10 case 2383',academic,13,88,65,2,Canteen
'please investigate because several systems freeze during compilation in cl1-a laboratory equipment availability is affected and staff assistance has been requested at 18:00 case 2384',lab,18,62,74,4,Lab_Equipment
'please investigate because the ceiling fans are not operating in g6 the electrical supply needs inspection and several students are affected at 10:15 case 2385',academic,10,49,32,3,Electrical
'staff were informed that dust and litter remain around the workstations in ece-202 this is a hygiene and cleanliness concern while another campus service remains normal at 9:01 case 2386',lab,9,71,51,1,Cleanliness
'an urgent maintenance check is needed because the filtration unit shows a service warning in cl22-b the water service needs attention while the area is moderately occupied at 17:56 case 2388',lab,17,62,85,1,Water
'during the latest session the common area is overcrowded in h4 corridor 2 while another campus service remains normal and the issue lasts more than ten minutes at 11:38 case 2389',hostel,11,90,70,3,Lab_Equipment
'students report that a monitor and keyboard are not detected in h5 corridor 2 laboratory equipment availability is affected after normal troubleshooting was attempted at 9:27 case 2390',hostel,9,42,80,4,Lab_Equipment
'a repeated observation is that the queue extends into the walking area in backstage the food service operation is affected while the area is moderately occupied at 15:45 case 2391',common,15,67,51,4,Canteen
'an urgent maintenance check is needed because video lectures buffer on the campus connection in ff6 the network service is affected and several students are affected at 14:54 case 2392',academic,14,100,73,2,Network
'please investigate because the service queue is moving very slowly in washroom 1 after normal troubleshooting was attempted while the area is moderately occupied at 14:03 case 2393',utility,14,73,42,3,Canteen
'students report that a monitor and keyboard are not detected in h5 common room laboratory equipment availability is affected near the main entrance to the space at 10:29 case 2396',hostel,10,97,56,5,Lab_Equipment
'for the second time this week the ventilation fan does not start in g2 the electrical supply needs inspection and it interrupts scheduled teaching at 17:29 case 2398',academic,17,65,63,2,Electrical
'please investigate because the projector loses its input after a few minutes in basketball court although nearby rooms remain usable and staff assistance has been requested at 9:07 case 2399',sports,9,73,24,4,Infrastructure
'during the latest session the classroom door cannot close safely in g2 the physical infrastructure needs attention although nearby rooms remain usable at 10:42 case 2401',academic,10,82,59,3,Infrastructure
'today we noticed that ceiling plaster appears loose near the entrance in digital area and the condition has become more frequent and the condition has become more frequent at 12:01 case 2402',library,12,82,40,4,Infrastructure
'an urgent maintenance check is needed because standing water is creating an unhygienic patch in cooler b this is a hygiene and cleanliness concern without any warning notice at 10:27 case 2403',utility,10,33,74,3,Cleanliness
'a repeated observation is that a campus service is unavailable without an explanation in digital area while another campus service remains normal and the issue lasts more than ten minutes at 18:04 case 2404',library,18,62,34,2,Other
'during the latest session lights flicker repeatedly during use in cr201 near the main entrance to the space although nearby rooms remain usable at 13:30 case 2405',academic,13,83,71,2,Electrical
'during the latest session students cannot authenticate to the wireless network in ece-202 the network service is affected after normal troubleshooting was attempted at 10:06 case 2406',lab,10,58,62,3,Network
'a repeated observation is that the display cable and wall port need repair in student parking and staff assistance has been requested while another campus service remains normal at 14:43 case 2407',outdoor,14,64,73,1,Infrastructure
'students report that several desks have loose or damaged fittings in indoor court and it interrupts scheduled teaching during a regular teaching period at 14:43 case 2408',sports,14,59,72,5,Infrastructure
'an urgent maintenance check is needed because signage for the room is missing in gym the physical infrastructure needs attention although nearby rooms remain usable at 11:29 case 2409',sports,11,74,68,3,Infrastructure
'staff were informed that a tap continues running after it is closed in g5 the water service needs attention while another campus service remains normal at 8:55 case 2410',academic,8,56,56,3,Water
'an urgent maintenance check is needed because the lunch rush is blocking the entrance in counter a and it interrupts scheduled teaching after normal troubleshooting was attempted at 8:05 case 2411',food,8,38,57,4,Canteen
'please investigate because the projector loses its input after a few minutes in indoor court the physical infrastructure needs attention and the issue lasts more than ten minutes at 11:04 case 2412',sports,11,36,35,2,Infrastructure
'for the second time this week order processing has stopped at one counter in ts17 the food service operation is affected after normal troubleshooting was attempted at 14:51 case 2413',academic,14,81,70,2,Canteen
'please investigate because several systems freeze during compilation in ece-201 laboratory equipment availability is affected during a regular teaching period at 11:30 case 2414',lab,11,47,43,1,Lab_Equipment
'staff were informed that an unattended item is obstructing the walkway in cooler b while another campus service remains normal although nearby rooms remain usable at 13:10 case 2415',utility,13,75,53,1,Other
'an urgent maintenance check is needed because pedestrian movement is restricted by stored material in gate 1 campus operations are being disrupted and staff assistance has been requested at 12:20 case 2416',outdoor,12,100,56,5,Other
'a repeated observation is that a power socket is loose and unsafe in cl3-b the electrical supply needs inspection and the issue lasts more than ten minutes at 14:08 case 2417',lab,14,85,57,3,Electrical
'an urgent maintenance check is needed because the lab printer is unavailable to student systems in cr101 laboratory equipment availability is affected while the area is moderately occupied at 9:14 case 2418',academic,9,67,44,5,Lab_Equipment
'for the second time this week water is collecting beneath the dispenser in student parking the water service needs attention while the area is moderately occupied at 16:09 case 2419',outdoor,16,54,70,2,Water
'for the second time this week water is collecting beneath the dispenser in ts18 after normal troubleshooting was attempted and the condition has become more frequent at 10:33 case 2420',academic,10,61,76,2,Water
'a repeated observation is that internet speed falls below a usable level in ff6 the network service is affected without any warning notice at 14:48 case 2421',academic,14,76,84,2,Network
'during the latest session lights flicker repeatedly during use in visitor parking while another campus service remains normal near the main entrance to the space at 12:44 case 2422',outdoor,12,87,44,2,Electrical
'staff were informed that an unattended item is obstructing the walkway in g6 and the issue lasts more than ten minutes without any warning notice at 15:57 case 2423',academic,15,74,65,2,Other
'an urgent maintenance check is needed because pedestrian movement is restricted by stored material in basketball court campus operations are being disrupted without any warning notice at 8:07 case 2424',sports,8,43,62,2,Other
'during the latest session lights flicker repeatedly during use in security post the electrical supply needs inspection near the main entrance to the space at 11:31 case 2425',outdoor,11,80,55,4,Electrical
'staff were informed that an electrical panel is making an unusual sound in backstage the electrical supply needs inspection and it interrupts scheduled teaching at 17:51 case 2426',common,17,87,85,2,Infrastructure
'please investigate because the area has not been cleaned since the morning in ts17 while the area is moderately occupied and it interrupts scheduled teaching at 13:22 case 2427',academic,13,70,69,1,Cleanliness
'please investigate because the projector loses its input after a few minutes in g2 although nearby rooms remain usable and it interrupts scheduled teaching at 11:53 case 2428',academic,11,57,79,2,Infrastructure
'for the second time this week the device driver is missing from the workstation in cs1 without any warning notice without any warning notice at 9:15 case 2430',academic,9,100,37,3,Lab_Equipment
'please investigate because the campus network drops repeatedly during class in food court the network service is affected without any warning notice at 17:01 case 2431',food,17,84,60,1,Network
'students report that only one billing counter is open during the rush in cr202 while the area is moderately occupied and the condition has become more frequent at 17:45 case 2432',academic,17,54,65,4,Canteen
'during the latest session students are waiting too long for food service in billing counter the food service operation is affected and staff assistance has been requested at 10:54 case 2433',food,10,62,50,3,Canteen
'a repeated observation is that laboratory equipment reports a calibration error in cl1-a laboratory equipment availability is affected near the main entrance to the space at 16:17 case 2434',lab,16,37,40,3,Lab_Equipment
'an urgent maintenance check is needed because the filtration unit shows a service warning in h5 corridor 1 during a regular teaching period and it interrupts scheduled teaching at 11:26 case 2435',hostel,11,62,68,4,Water
'during the latest session students are waiting too long for food service in ts11 although nearby rooms remain usable and the condition has become more frequent at 18:04 case 2438',academic,18,78,68,2,Canteen
'an urgent maintenance check is needed because pedestrian movement is restricted by stored material in billing counter campus operations are being disrupted and several students are affected at 13:53 case 2440',food,13,92,64,2,Other
'a repeated observation is that the wash area needs urgent sanitation in cr201 and several students are affected while another campus service remains normal at 16:24 case 2441',academic,16,24,21,4,Cleanliness
'an urgent maintenance check is needed because pedestrian movement is restricted by stored material in cl1-b campus operations are being disrupted and staff assistance has been requested at 13:02 case 2442',lab,13,78,58,1,Water
'students report that several desks have loose or damaged fittings in g3 and the issue lasts more than ten minutes and it interrupts scheduled teaching at 16:54 case 2446',academic,16,78,68,2,Infrastructure
'a repeated observation is that the nearest water point is not operational in cooler a the water service needs attention and the issue lasts more than ten minutes at 9:42 case 2449',utility,9,63,79,2,Water
'a repeated observation is that the display cable and wall port need repair in g2 and the issue lasts more than ten minutes after normal troubleshooting was attempted at 11:33 case 2450',academic,11,100,72,4,Canteen
'during the latest session the classroom door cannot close safely in cs1 the physical infrastructure needs attention during a regular teaching period at 15:02 case 2452',academic,15,67,81,5,Infrastructure
'a repeated observation is that the wash area needs urgent sanitation in ts11 while the area is moderately occupied during a regular teaching period at 13:12 case 2454',academic,13,54,51,3,Cleanliness
'a repeated observation is that a campus service is unavailable without an explanation in washroom g campus operations are being disrupted and it interrupts scheduled teaching at 9:05 case 2455',utility,9,52,65,4,Other
'for the second time this week order processing has stopped at one counter in security post the food service operation is affected although nearby rooms remain usable at 16:37 case 2456',outdoor,16,46,61,1,Canteen
'an urgent maintenance check is needed because signage for the room is missing in ff6 without any warning notice after normal troubleshooting was attempted at 15:19 case 2457',academic,15,65,51,2,Infrastructure
'during the latest session students cannot authenticate to the wireless network in g3 the network service is affected although nearby rooms remain usable at 11:11 case 2458',academic,11,95,52,1,Network
'for the second time this week the help desk is closed during published hours in visitor parking without any warning notice near the main entrance to the space at 17:06 case 2459',outdoor,17,81,68,1,Other
'please investigate because the ceiling fans are not operating in cr101 the electrical supply needs inspection while another campus service remains normal at 18:54 case 2460',academic,18,72,69,3,Electrical
'for the second time this week the lecture-room screen does not lower correctly in main hall during a regular teaching period while another campus service remains normal at 11:36 case 2461',common,11,98,89,2,Infrastructure
'for the second time this week the device driver is missing from the workstation in academic office laboratory equipment availability is affected although nearby rooms remain usable at 14:11 case 2462',office,14,74,72,2,Lab_Equipment
'today we noticed that ceiling plaster appears loose near the entrance in g1 and several students are affected and it interrupts scheduled teaching at 11:15 case 2463',academic,11,61,57,3,Infrastructure
'a repeated observation is that a power socket is loose and unsafe in reading hall and it interrupts scheduled teaching and several students are affected at 12:22 case 2465',library,12,100,80,2,Electrical
'a repeated observation is that a power socket is loose and unsafe in cs2 while the area is moderately occupied during a regular teaching period at 9:34 case 2466',academic,9,56,58,1,Electrical
'students report that only one billing counter is open during the rush in ts11 the food service operation is affected and the issue lasts more than ten minutes at 16:24 case 2468',academic,16,47,40,5,Canteen
'a repeated observation is that internet speed falls below a usable level in ts11 the network service is affected while the area is moderately occupied at 8:57 case 2469',academic,8,77,35,1,Network
'please investigate because the drinking-water dispenser is empty in washroom 1 during a regular teaching period and staff assistance has been requested at 10:11 case 2470',utility,10,57,48,1,Water
'please investigate because the drinking-water dispenser is empty in h4 common room the water service needs attention while another campus service remains normal at 14:24 case 2471',hostel,14,68,73,3,Water
'during the latest session water pressure is too low for normal use in ts11 the water service needs attention while another campus service remains normal at 17:03 case 2473',academic,17,19,64,3,Water
'an urgent maintenance check is needed because the lab printer is unavailable to student systems in g2 laboratory equipment availability is affected near the main entrance to the space at 15:02 case 2474',academic,15,73,44,2,Lab_Equipment
'today we noticed that network coverage disappears near the back rows in reading hall the network service is affected while another campus service remains normal at 16:48 case 2475',library,16,80,55,4,Network
'an urgent maintenance check is needed because the lunch rush is blocking the entrance in reading hall the food service operation is affected and several students are affected at 17:32 case 2476',library,17,73,58,4,Canteen
'today we noticed that network coverage disappears near the back rows in cs1 and it interrupts scheduled teaching without any warning notice at 8:20 case 2477',academic,8,18,65,4,Network
'an urgent maintenance check is needed because the lab printer is unavailable to student systems in cl3-b and it interrupts scheduled teaching during a regular teaching period at 11:31 case 2479',lab,11,49,43,1,Lab_Equipment
'today we noticed that charging points are unavailable in gate 1 and it interrupts scheduled teaching and the condition has become more frequent at 18:54 case 2480',outdoor,18,100,49,3,Electrical
'a repeated observation is that laboratory equipment reports a calibration error in g3 laboratory equipment availability is affected while the area is moderately occupied at 13:30 case 2481',academic,13,95,39,5,Lab_Equipment
'an urgent maintenance check is needed because the filtration unit shows a service warning in reception the water service needs attention near the main entrance to the space at 12:26 case 2482',office,12,96,54,3,Water
'during the latest session students cannot authenticate to the wireless network in cs1 the network service is affected while the area is moderately occupied at 17:44 case 2483',academic,17,65,78,3,Network
'staff were informed that dust and litter remain around the workstations in student parking during a regular teaching period while the area is moderately occupied at 16:23 case 2484',outdoor,16,68,37,4,Cleanliness
'an urgent maintenance check is needed because the lunch rush is blocking the entrance in cl3-a and several students are affected while another campus service remains normal at 17:07 case 2485',lab,17,30,72,4,Canteen
'please investigate because the projector loses its input after a few minutes in h5 corridor 1 and several students are affected during a regular teaching period at 11:06 case 2486',hostel,11,16,60,3,Infrastructure
'students report that the wifi signal is unstable for several devices in ts18 and it interrupts scheduled teaching without any warning notice at 15:35 case 2487',academic,15,31,32,4,Network
'please investigate because the service queue is moving very slowly in washroom 1 the food service operation is affected and it interrupts scheduled teaching at 14:01 case 2488',utility,14,84,77,4,Canteen
'during the latest session the workstation cannot boot for the practical in main hall laboratory equipment availability is affected near the main entrance to the space at 10:27 case 2489',common,10,95,54,5,Lab_Equipment
'students report that the air conditioner stops cooling after midday in h5 corridor 2 without any warning notice near the main entrance to the space at 8:42 case 2490',hostel,8,83,78,2,Electrical
'students report that the wifi signal is unstable for several devices in group study without any warning notice while another campus service remains normal at 18:26 case 2491',library,18,56,34,3,Network
'an urgent maintenance check is needed because standing water is creating an unhygienic patch in main hall after normal troubleshooting was attempted without any warning notice at 14:35 case 2493',common,14,92,93,1,Cleanliness
'today we noticed that seating capacity is insufficient during the meal break in digital area near the main entrance to the space and several students are affected at 14:01 case 2494',library,14,61,54,1,Canteen
'for the second time this week the device driver is missing from the workstation in cl15-b and staff assistance has been requested after normal troubleshooting was attempted at 8:57 case 2495',lab,8,46,42,4,Lab_Equipment
'students report that water is leaking into the walking area in backstage and the issue lasts more than ten minutes during a regular teaching period at 14:57 case 2496',common,14,50,66,2,Water
'for the second time this week order processing has stopped at one counter in cl3-a the food service operation is affected without any warning notice at 17:08 case 2497',lab,17,68,68,2,Canteen
'a repeated observation is that internet speed falls below a usable level in visitor parking and the condition has become more frequent near the main entrance to the space at 8:28 case 2499',outdoor,8,50,78,4,Network
'for the second time this week the wired connection cannot reach institute services in gym the network service is affected during a regular teaching period at 11:26 case 2501',sports,11,54,74,4,Network
'please investigate because the service queue is moving very slowly in g2 and the issue lasts more than ten minutes and it interrupts scheduled teaching at 12:30 case 2502',academic,12,92,60,3,Canteen
'please investigate because several systems freeze during compilation in g3 laboratory equipment availability is affected while the area is moderately occupied at 12:01 case 2503',academic,12,66,41,5,Cleanliness
'during the latest session lights flicker repeatedly during use in washroom 1 the electrical supply needs inspection and the condition has become more frequent at 15:32 case 2505',utility,15,42,51,2,Electrical
'students report that the air conditioner stops cooling after midday in food court after normal troubleshooting was attempted and the condition has become more frequent at 10:38 case 2506',food,10,73,59,2,Electrical
'today we noticed that the corridor has a persistent hygiene problem in h4 corridor 1 this is a hygiene and cleanliness concern during a regular teaching period at 15:48 case 2507',hostel,15,65,40,5,Cleanliness
'students report that directional signage is unclear for new students in food court campus operations are being disrupted and it interrupts scheduled teaching at 10:50 case 2508',food,10,63,83,1,Other
'during the latest session a spill has made the floor slippery in security post without any warning notice and it interrupts scheduled teaching at 11:50 case 2509',outdoor,11,71,47,2,Cleanliness
'please investigate because the campus network drops repeatedly during class in reception and staff assistance has been requested and several students are affected at 11:45 case 2510',office,11,100,31,3,Network
'a repeated observation is that internet speed falls below a usable level in g6 and staff assistance has been requested while the area is moderately occupied at 11:25 case 2511',academic,11,82,61,1,Network
'staff were informed that the experiment console does not record readings in gym laboratory equipment availability is affected and the condition has become more frequent at 10:23 case 2512',sports,10,76,35,4,Lab_Equipment
'a repeated observation is that the display cable and wall port need repair in counter a during a regular teaching period after normal troubleshooting was attempted at 10:06 case 2515',food,10,100,43,3,Infrastructure
'a repeated observation is that a power socket is loose and unsafe in reading hall the electrical supply needs inspection although nearby rooms remain usable at 8:42 case 2516',library,8,52,73,4,Electrical
'students report that waste bins are overflowing into the corridor in cl22-a near the main entrance to the space and staff assistance has been requested at 17:56 case 2517',lab,17,50,53,2,Cleanliness
'a repeated observation is that the queue extends into the walking area in billing counter the food service operation is affected while another campus service remains normal at 12:02 case 2518',food,12,69,60,3,Canteen
'for the second time this week the ventilation fan does not start in basketball court the electrical supply needs inspection and it interrupts scheduled teaching at 16:01 case 2519',sports,16,60,73,1,Electrical
'during the latest session students cannot authenticate to the wireless network in indoor court the network service is affected while the area is moderately occupied at 10:42 case 2522',sports,10,35,66,5,Network
'a repeated observation is that the wash area needs urgent sanitation in cl1-b near the main entrance to the space after normal troubleshooting was attempted at 13:09 case 2524',lab,13,51,44,3,Cleanliness
'an urgent maintenance check is needed because the lunch rush is blocking the entrance in cl1-b although nearby rooms remain usable and staff assistance has been requested at 16:02 case 2525',lab,16,81,31,1,Canteen
'during the latest session the classroom door cannot close safely in cs2 and staff assistance has been requested near the main entrance to the space at 11:12 case 2528',academic,11,85,69,4,Infrastructure
'please investigate because the service queue is moving very slowly in g6 the food service operation is affected although nearby rooms remain usable at 14:49 case 2529',academic,14,68,58,4,Canteen
'staff were informed that billing and collection lines are merging into one queue in group study and the condition has become more frequent without any warning notice at 14:17 case 2530',library,14,79,44,2,Canteen
'an urgent maintenance check is needed because the lab printer is unavailable to student systems in ff6 after normal troubleshooting was attempted and staff assistance has been requested at 18:42 case 2531',academic,18,39,74,4,Lab_Equipment
'for the second time this week the wired connection cannot reach institute services in ff6 the network service is affected without any warning notice at 9:20 case 2532',academic,9,80,57,5,Network
'today we noticed that network coverage disappears near the back rows in indoor court the network service is affected after normal troubleshooting was attempted at 10:53 case 2536',sports,10,49,67,1,Network
'a repeated observation is that the wash area needs urgent sanitation in g5 and several students are affected near the main entrance to the space at 15:48 case 2537',academic,15,68,68,1,Cleanliness
'today we noticed that charging points are unavailable in ece-202 the electrical supply needs inspection during a regular teaching period at 11:49 case 2538',lab,11,91,77,3,Electrical
'for the second time this week the wired connection cannot reach institute services in cr202 the network service is affected and it interrupts scheduled teaching at 16:20 case 2539',academic,16,78,61,1,Network
'an urgent maintenance check is needed because the lab printer is unavailable to student systems in cooler a and staff assistance has been requested after normal troubleshooting was attempted at 11:35 case 2540',utility,11,50,60,3,Lab_Equipment
'please investigate because the projector loses its input after a few minutes in cr101 the physical infrastructure needs attention near the main entrance to the space at 12:21 case 2542',academic,12,64,67,5,Infrastructure
'for the second time this week the lecture-room screen does not lower correctly in student parking the physical infrastructure needs attention after normal troubleshooting was attempted at 11:06 case 2543',outdoor,11,55,38,2,Infrastructure
'please investigate because the area has not been cleaned since the morning in backstage this is a hygiene and cleanliness concern and the issue lasts more than ten minutes at 18:32 case 2544',common,18,82,68,2,Cleanliness
'staff were informed that dust and litter remain around the workstations in gate 1 this is a hygiene and cleanliness concern during a regular teaching period at 11:17 case 2545',outdoor,11,68,20,2,Cleanliness
'during the latest session a spill has made the floor slippery in basketball court while another campus service remains normal and staff assistance has been requested at 8:37 case 2546',sports,8,47,82,3,Cleanliness
'for the second time this week the ventilation fan does not start in h5 corridor 2 the electrical supply needs inspection and the condition has become more frequent at 12:58 case 2547',hostel,12,39,33,2,Electrical
'students report that the wifi signal is unstable for several devices in cl15-b and the condition has become more frequent near the main entrance to the space at 15:11 case 2548',lab,15,68,62,2,Network
'for the second time this week the cleaning schedule appears to have been missed in g5 this is a hygiene and cleanliness concern and several students are affected at 16:28 case 2550',academic,16,63,48,1,Cleanliness
'for the second time this week the cleaning schedule appears to have been missed in cs1 near the main entrance to the space and several students are affected at 11:34 case 2551',academic,11,99,49,2,Cleanliness
'during the latest session a spill has made the floor slippery in backstage and several students are affected near the main entrance to the space at 10:46 case 2552',common,10,75,44,3,Cleanliness
'a repeated observation is that the queue extends into the walking area in ts11 the food service operation is affected and it interrupts scheduled teaching at 16:49 case 2553',academic,16,62,63,3,Canteen
'staff were informed that a tap continues running after it is closed in gym while the area is moderately occupied while the area is moderately occupied at 13:08 case 2554',sports,13,72,54,3,Water
'please investigate because the projector loses its input after a few minutes in main hall although nearby rooms remain usable and several students are affected at 14:54 case 2557',common,14,47,80,2,Infrastructure
'please investigate because the projector loses its input after a few minutes in cr201 after normal troubleshooting was attempted and the issue lasts more than ten minutes at 9:33 case 2558',academic,9,44,61,3,Infrastructure
'staff were informed that the writing surface is damaged and difficult to use in cl1-a the physical infrastructure needs attention after normal troubleshooting was attempted at 11:20 case 2559',lab,11,82,35,3,Infrastructure
'today we noticed that charging points are unavailable in cl3-a the electrical supply needs inspection and it interrupts scheduled teaching at 15:43 case 2560',lab,15,41,95,2,Electrical
'students report that several desks have loose or damaged fittings in food court the physical infrastructure needs attention without any warning notice at 10:12 case 2562',food,10,40,71,2,Lab_Equipment
'today we noticed that charging points are unavailable in academic office although nearby rooms remain usable while another campus service remains normal at 12:04 case 2563',office,12,82,78,1,Electrical
'a repeated observation is that the wash area needs urgent sanitation in ts17 this is a hygiene and cleanliness concern without any warning notice at 8:51 case 2564',academic,8,60,26,4,Cleanliness
'please investigate because the projector loses its input after a few minutes in group study the physical infrastructure needs attention and the issue lasts more than ten minutes at 8:50 case 2568',library,8,46,43,3,Electrical
'a repeated observation is that the nearest water point is not operational in h4 corridor 2 the water service needs attention and the issue lasts more than ten minutes at 13:21 case 2571',hostel,13,61,63,5,Water
'staff were informed that online resources time out during the session in cl22-b and it interrupts scheduled teaching while another campus service remains normal at 8:27 case 2573',lab,8,68,40,3,Network
'today we noticed that the corridor has a persistent hygiene problem in cr101 while another campus service remains normal during a regular teaching period at 17:38 case 2574',academic,17,31,57,1,Cleanliness
'during the latest session lights flicker repeatedly during use in digital area the electrical supply needs inspection and staff assistance has been requested at 8:44 case 2575',library,8,99,88,3,Electrical
'during the latest session the classroom door cannot close safely in cr425 near the main entrance to the space while another campus service remains normal at 11:11 case 2576',academic,11,83,51,2,Infrastructure
'a repeated observation is that the wash area needs urgent sanitation in ts12 while another campus service remains normal without any warning notice at 18:19 case 2577',academic,18,63,36,1,Canteen
'an urgent maintenance check is needed because the lunch rush is blocking the entrance in ece-201 and it interrupts scheduled teaching while another campus service remains normal at 13:34 case 2578',lab,13,57,59,3,Canteen
'please investigate because the ceiling fans are not operating in g3 during a regular teaching period and it interrupts scheduled teaching at 16:20 case 2579',academic,16,61,77,1,Electrical
'an urgent maintenance check is needed because a switchboard becomes warm during operation in group study near the main entrance to the space and the condition has become more frequent at 10:53 case 2580',library,10,59,42,4,Electrical
'for the second time this week the lecture-room screen does not lower correctly in cl22-a without any warning notice after normal troubleshooting was attempted at 9:49 case 2581',lab,9,75,69,2,Infrastructure
'today we noticed that charging points are unavailable in h4 corridor 2 the electrical supply needs inspection although nearby rooms remain usable at 15:20 case 2582',hostel,15,78,80,5,Electrical
'a repeated observation is that internet speed falls below a usable level in gate 1 the network service is affected while another campus service remains normal at 12:52 case 2583',outdoor,12,94,50,1,Network
'an urgent maintenance check is needed because pedestrian movement is restricted by stored material in reception during a regular teaching period although nearby rooms remain usable at 14:58 case 2584',office,14,58,48,3,Other
'a repeated observation is that the wash area needs urgent sanitation in washroom g while the area is moderately occupied while the area is moderately occupied at 16:57 case 2586',utility,16,54,29,2,Cleanliness
'students report that the wifi signal is unstable for several devices in cl22-a the network service is affected and the condition has become more frequent at 10:44 case 2587',lab,10,89,58,2,Network
'staff were informed that online resources time out during the session in counter a the network service is affected and the condition has become more frequent at 12:22 case 2588',food,12,70,58,1,Network
'please investigate because the service queue is moving very slowly in cl15-b the food service operation is affected during a regular teaching period at 15:20 case 2591',lab,15,80,38,3,Canteen
'today we noticed that the refill indicator has remained empty in h5 common room near the main entrance to the space although nearby rooms remain usable at 16:12 case 2592',hostel,16,41,68,3,Water
'today we noticed that the refill indicator has remained empty in h5 common room the water service needs attention and staff assistance has been requested at 10:32 case 2593',hostel,10,68,46,4,Water
'please investigate because the campus network drops repeatedly during class in cr201 without any warning notice and several students are affected at 11:16 case 2594',academic,11,73,70,2,Network
'for the second time this week the device driver is missing from the workstation in cl1-b while the area is moderately occupied although nearby rooms remain usable at 8:18 case 2595',lab,8,41,59,1,Lab_Equipment
'a repeated observation is that the queue extends into the walking area in cl22-a after normal troubleshooting was attempted and the condition has become more frequent at 8:31 case 2597',lab,8,77,66,2,Canteen
'today we noticed that network coverage disappears near the back rows in indoor court the network service is affected near the main entrance to the space at 9:34 case 2600',sports,9,57,61,3,Network
'students report that only one billing counter is open during the rush in g2 while another campus service remains normal while another campus service remains normal at 10:43 case 2601',academic,10,79,45,3,Canteen
'staff were informed that dust and litter remain around the workstations in cr101 this is a hygiene and cleanliness concern and staff assistance has been requested at 10:15 case 2602',academic,10,66,76,2,Electrical
'an urgent maintenance check is needed because the lab printer is unavailable to student systems in cs1 laboratory equipment availability is affected and several students are affected at 15:59 case 2605',academic,15,70,53,1,Lab_Equipment
'staff were informed that an unattended item is obstructing the walkway in cl1-b and it interrupts scheduled teaching and several students are affected at 8:05 case 2606',lab,8,56,44,4,Other
'an urgent maintenance check is needed because the lab printer is unavailable to student systems in ff6 laboratory equipment availability is affected and several students are affected at 8:39 case 2607',academic,8,56,64,1,Lab_Equipment
'staff were informed that billing and collection lines are merging into one queue in dining hall the food service operation is affected without any warning notice at 16:08 case 2608',food,16,61,73,4,Canteen
'please investigate because the projector loses its input after a few minutes in ff6 and several students are affected during a regular teaching period at 8:38 case 2610',academic,8,58,65,4,Infrastructure
'today we noticed that the corridor has a persistent hygiene problem in cl1-a and several students are affected while the area is moderately occupied at 8:29 case 2611',lab,8,46,66,3,Cleanliness
'an urgent maintenance check is needed because video lectures buffer on the campus connection in cr201 while the area is moderately occupied while another campus service remains normal at 8:31 case 2613',academic,8,81,32,1,Network
'a repeated observation is that a campus service is unavailable without an explanation in group study without any warning notice and the issue lasts more than ten minutes at 10:34 case 2615',library,10,72,70,3,Other
'students report that the air conditioner stops cooling after midday in basketball court the electrical supply needs inspection and staff assistance has been requested at 11:35 case 2616',sports,11,97,71,3,Electrical
'staff were informed that the writing surface is damaged and difficult to use in group study the physical infrastructure needs attention without any warning notice at 11:14 case 2617',library,11,61,53,1,Infrastructure
'a repeated observation is that the nearest water point is not operational in food court the water service needs attention although nearby rooms remain usable at 9:29 case 2618',food,9,52,69,2,Water
'students report that only one billing counter is open during the rush in cl1-a the food service operation is affected although nearby rooms remain usable at 9:11 case 2619',lab,9,42,57,3,Canteen
'today we noticed that the corridor has a persistent hygiene problem in ts12 and the issue lasts more than ten minutes after normal troubleshooting was attempted at 17:38 case 2620',academic,17,92,83,2,Cleanliness
'for the second time this week the wired connection cannot reach institute services in cl1-a the network service is affected after normal troubleshooting was attempted at 11:07 case 2621',lab,11,37,61,2,Network
'students report that a monitor and keyboard are not detected in gate 1 laboratory equipment availability is affected and staff assistance has been requested at 13:34 case 2622',outdoor,13,86,88,2,Lab_Equipment
'staff were informed that an unattended item is obstructing the walkway in cooler b campus operations are being disrupted and several students are affected at 16:57 case 2623',utility,16,38,48,3,Other
'staff were informed that online resources time out during the session in cl1-a although nearby rooms remain usable although nearby rooms remain usable at 13:51 case 2624',lab,13,81,64,5,Network
'today we noticed that network coverage disappears near the back rows in gh corridor 1 while the area is moderately occupied and the condition has become more frequent at 16:53 case 2625',hostel,16,65,60,3,Network
'please investigate because the ceiling fans are not operating in h5 corridor 1 and the issue lasts more than ten minutes while another campus service remains normal at 16:11 case 2626',hostel,16,60,73,2,Electrical
'students report that several desks have loose or damaged fittings in ece-202 the physical infrastructure needs attention after normal troubleshooting was attempted at 10:31 case 2627',lab,10,49,49,3,Infrastructure
'today we noticed that network coverage disappears near the back rows in washroom g near the main entrance to the space and it interrupts scheduled teaching at 11:29 case 2628',utility,11,89,71,1,Network
'during the latest session students cannot authenticate to the wireless network in g1 the network service is affected while another campus service remains normal at 10:06 case 2629',academic,10,38,60,2,Network
'please investigate because the drinking-water dispenser is empty in gh corridor 1 the water service needs attention and several students are affected at 8:58 case 2630',hostel,8,43,56,3,Water
'staff were informed that a tap continues running after it is closed in cr202 the water service needs attention although nearby rooms remain usable at 14:18 case 2633',academic,14,62,43,3,Water
'during the latest session students cannot authenticate to the wireless network in billing counter and the condition has become more frequent and several students are affected at 13:20 case 2634',food,13,63,64,3,Network
'today we noticed that charging points are unavailable in washroom g the electrical supply needs inspection while the area is moderately occupied at 18:44 case 2635',utility,18,66,37,4,Electrical
'for the second time this week the wired connection cannot reach institute services in ece-202 and it interrupts scheduled teaching and the condition has become more frequent at 8:30 case 2636',lab,8,70,39,1,Network
'during the latest session the common area is overcrowded in ts11 campus operations are being disrupted and the condition has become more frequent at 8:52 case 2637',academic,8,65,41,2,Other
'staff were informed that an electrical panel is making an unusual sound in h5 corridor 2 although nearby rooms remain usable near the main entrance to the space at 9:03 case 2638',hostel,9,47,51,2,Electrical
'for the second time this week the wired connection cannot reach institute services in h4 corridor 1 although nearby rooms remain usable while another campus service remains normal at 9:45 case 2639',hostel,9,85,25,2,Other
'for the second time this week water is collecting beneath the dispenser in h4 corridor 1 the water service needs attention while another campus service remains normal at 9:40 case 2642',hostel,9,85,55,3,Water
'staff were informed that the experiment console does not record readings in cl3-a laboratory equipment availability is affected although nearby rooms remain usable at 18:18 case 2644',lab,18,62,87,3,Lab_Equipment
'today we noticed that the refill indicator has remained empty in ts11 the water service needs attention and staff assistance has been requested at 12:40 case 2648',academic,12,56,67,2,Water
'during the latest session students are waiting too long for food service in h5 corridor 2 the food service operation is affected near the main entrance to the space at 11:43 case 2649',hostel,11,45,72,5,Canteen
'an urgent maintenance check is needed because a switchboard becomes warm during operation in cr201 the electrical supply needs inspection while the area is moderately occupied at 10:11 case 2652',academic,10,58,58,2,Electrical
'staff were informed that dust and litter remain around the workstations in visitor parking and it interrupts scheduled teaching and staff assistance has been requested at 18:38 case 2653',outdoor,18,27,43,3,Cleanliness
'please investigate because several systems freeze during compilation in cr101 and the condition has become more frequent while the area is moderately occupied at 11:17 case 2655',academic,11,50,59,2,Lab_Equipment
'students report that several desks have loose or damaged fittings in gate 1 and the issue lasts more than ten minutes while the area is moderately occupied at 10:11 case 2656',outdoor,10,77,65,4,Infrastructure
'an urgent maintenance check is needed because the lab printer is unavailable to student systems in gym laboratory equipment availability is affected after normal troubleshooting was attempted at 9:47 case 2657',sports,9,75,83,3,Lab_Equipment
'during the latest session the workstation cannot boot for the practical in h4 corridor 1 laboratory equipment availability is affected and the condition has become more frequent at 8:06 case 2658',hostel,8,61,40,5,Lab_Equipment
'staff were informed that the writing surface is damaged and difficult to use in g1 the physical infrastructure needs attention and it interrupts scheduled teaching at 13:21 case 2659',academic,13,100,34,5,Infrastructure
'for the second time this week the help desk is closed during published hours in reception campus operations are being disrupted while another campus service remains normal at 13:13 case 2660',office,13,41,77,5,Other
'an urgent maintenance check is needed because a switchboard becomes warm during operation in food court and it interrupts scheduled teaching and the issue lasts more than ten minutes at 13:31 case 2661',food,13,58,40,3,Electrical
'students report that several desks have loose or damaged fittings in gate 1 the physical infrastructure needs attention while the area is moderately occupied at 12:44 case 2662',outdoor,12,75,57,4,Infrastructure
'an urgent maintenance check is needed because video lectures buffer on the campus connection in visitor parking the network service is affected after normal troubleshooting was attempted at 17:22 case 2663',outdoor,17,50,55,1,Network
'students report that several desks have loose or damaged fittings in backstage after normal troubleshooting was attempted during a regular teaching period at 10:09 case 2664',common,10,1,72,5,Infrastructure
'an urgent maintenance check is needed because signage for the room is missing in cs1 and the issue lasts more than ten minutes after normal troubleshooting was attempted at 15:34 case 2665',academic,15,59,50,3,Infrastructure
'staff were informed that online resources time out during the session in cr202 during a regular teaching period while another campus service remains normal at 14:55 case 2666',academic,14,98,53,1,Network
'today we noticed that the refill indicator has remained empty in g6 and several students are affected and it interrupts scheduled teaching at 15:15 case 2667',academic,15,31,49,2,Network
'staff were informed that an electrical panel is making an unusual sound in h5 common room the electrical supply needs inspection while another campus service remains normal at 15:52 case 2668',hostel,15,59,60,5,Electrical
'staff were informed that a tap continues running after it is closed in cr101 and several students are affected and staff assistance has been requested at 10:10 case 2669',academic,10,60,42,5,Water
'during the latest session students cannot authenticate to the wireless network in backstage the network service is affected while the area is moderately occupied at 9:49 case 2671',common,9,69,23,2,Lab_Equipment
'students report that the wifi signal is unstable for several devices in security post the network service is affected after normal troubleshooting was attempted at 17:01 case 2672',outdoor,17,53,50,2,Network
'an urgent maintenance check is needed because standing water is creating an unhygienic patch in cr202 near the main entrance to the space during a regular teaching period at 15:39 case 2673',academic,15,28,62,2,Cleanliness
'today we noticed that seating capacity is insufficient during the meal break in g1 without any warning notice although nearby rooms remain usable at 16:21 case 2675',academic,16,85,61,4,Canteen
'students report that several desks have loose or damaged fittings in cr425 and it interrupts scheduled teaching and several students are affected at 15:25 case 2676',academic,15,27,58,2,Infrastructure
'an urgent maintenance check is needed because signage for the room is missing in backstage the physical infrastructure needs attention and staff assistance has been requested at 9:33 case 2678',common,9,86,55,2,Infrastructure
'staff were informed that dust and litter remain around the workstations in h4 corridor 1 this is a hygiene and cleanliness concern during a regular teaching period at 15:39 case 2679',hostel,15,79,60,3,Cleanliness
'an urgent maintenance check is needed because signage for the room is missing in ece-202 near the main entrance to the space and it interrupts scheduled teaching at 8:21 case 2680',lab,8,76,39,4,Infrastructure
'during the latest session the common area is overcrowded in visitor parking although nearby rooms remain usable while the area is moderately occupied at 11:27 case 2681',outdoor,11,73,43,5,Other
'a repeated observation is that the display cable and wall port need repair in cl3-b and staff assistance has been requested and staff assistance has been requested at 15:12 case 2683',lab,15,46,64,2,Infrastructure
'today we noticed that ceiling plaster appears loose near the entrance in cl1-b the physical infrastructure needs attention during a regular teaching period at 16:41 case 2684',lab,16,50,65,3,Infrastructure
'today we noticed that network coverage disappears near the back rows in main hall the network service is affected and it interrupts scheduled teaching at 11:53 case 2685',common,11,77,61,5,Network
'please investigate because several systems freeze during compilation in indoor court after normal troubleshooting was attempted and it interrupts scheduled teaching at 15:44 case 2686',sports,15,66,37,2,Lab_Equipment
'a repeated observation is that internet speed falls below a usable level in ece-201 the network service is affected near the main entrance to the space at 18:34 case 2687',lab,18,33,58,5,Network
'a repeated observation is that a power socket is loose and unsafe in g2 the electrical supply needs inspection near the main entrance to the space at 9:48 case 2688',academic,9,60,63,4,Electrical
'for the second time this week order processing has stopped at one counter in gym while the area is moderately occupied while the area is moderately occupied at 12:55 case 2689',sports,12,83,45,5,Canteen
'during the latest session the workstation cannot boot for the practical in ece-202 during a regular teaching period after normal troubleshooting was attempted at 15:45 case 2691',lab,15,60,57,5,Lab_Equipment
'students report that only one billing counter is open during the rush in digital area and staff assistance has been requested while another campus service remains normal at 14:49 case 2692',library,14,78,41,2,Canteen
'students report that several desks have loose or damaged fittings in student parking the physical infrastructure needs attention without any warning notice at 11:52 case 2694',outdoor,11,64,53,2,Infrastructure
'today we noticed that network coverage disappears near the back rows in digital area near the main entrance to the space and several students are affected at 12:59 case 2695',library,12,63,66,3,Network
'today we noticed that the notice board contains outdated information in counter a and staff assistance has been requested and it interrupts scheduled teaching at 13:12 case 2698',food,13,61,50,4,Other
'please investigate because the service queue is moving very slowly in food court the food service operation is affected without any warning notice at 16:51 case 2700',food,16,39,47,3,Canteen
'for the second time this week the wired connection cannot reach institute services in reading hall the network service is affected after normal troubleshooting was attempted at 13:22 case 2701',library,13,100,42,5,Network
'please investigate because the campus network drops repeatedly during class in backstage the network service is affected during a regular teaching period at 15:15 case 2703',common,15,46,54,2,Network
'today we noticed that the refill indicator has remained empty in security post and the issue lasts more than ten minutes after normal troubleshooting was attempted at 11:16 case 2704',outdoor,11,99,47,3,Water
'during the latest session the classroom door cannot close safely in cr202 the physical infrastructure needs attention and staff assistance has been requested at 18:30 case 2707',academic,18,74,37,4,Infrastructure
'students report that a monitor and keyboard are not detected in cl3-b after normal troubleshooting was attempted and the condition has become more frequent at 9:26 case 2708',lab,9,57,64,3,Lab_Equipment
'an urgent maintenance check is needed because signage for the room is missing in reception during a regular teaching period while another campus service remains normal at 10:32 case 2709',office,10,59,73,1,Infrastructure
'a repeated observation is that a power socket is loose and unsafe in cl22-a and several students are affected while another campus service remains normal at 17:52 case 2710',lab,17,46,30,1,Electrical
'during the latest session students cannot authenticate to the wireless network in h5 corridor 1 the network service is affected near the main entrance to the space at 15:35 case 2711',hostel,15,60,60,1,Network
'during the latest session the common area is overcrowded in h5 common room while another campus service remains normal and staff assistance has been requested at 8:58 case 2712',hostel,8,98,51,4,Other
'a repeated observation is that the queue extends into the walking area in cl22-b during a regular teaching period without any warning notice at 18:30 case 2713',lab,18,82,95,2,Canteen
'during the latest session students are waiting too long for food service in gh common room the food service operation is affected while another campus service remains normal at 16:33 case 2715',hostel,16,29,53,4,Canteen
'for the second time this week the lecture-room screen does not lower correctly in cr201 without any warning notice and several students are affected at 10:39 case 2716',academic,10,87,49,1,Infrastructure
'a repeated observation is that a power socket is loose and unsafe in cl3-a the electrical supply needs inspection and the issue lasts more than ten minutes at 18:45 case 2719',lab,18,58,77,3,Electrical
'a repeated observation is that the wash area needs urgent sanitation in washroom g this is a hygiene and cleanliness concern although nearby rooms remain usable at 11:31 case 2720',utility,11,49,72,1,Cleanliness
'for the second time this week the ventilation fan does not start in cl15-b while another campus service remains normal without any warning notice at 18:52 case 2721',lab,18,53,65,2,Electrical
'please investigate because the area has not been cleaned since the morning in reading hall this is a hygiene and cleanliness concern without any warning notice at 14:24 case 2723',library,14,74,71,1,Cleanliness
'a repeated observation is that the queue extends into the walking area in h5 corridor 1 the food service operation is affected while the area is moderately occupied at 16:54 case 2724',hostel,16,65,50,1,Canteen
'a repeated observation is that laboratory equipment reports a calibration error in washroom 1 laboratory equipment availability is affected after normal troubleshooting was attempted at 16:36 case 2726',utility,16,61,61,2,Lab_Equipment
'a repeated observation is that laboratory equipment reports a calibration error in basketball court laboratory equipment availability is affected and the issue lasts more than ten minutes at 12:38 case 2727',sports,12,69,88,2,Infrastructure
'students report that waste bins are overflowing into the corridor in food court this is a hygiene and cleanliness concern and staff assistance has been requested at 8:21 case 2728',food,8,33,64,4,Cleanliness
'during the latest session the common area is overcrowded in cl22-b campus operations are being disrupted and the condition has become more frequent at 9:51 case 2729',lab,9,57,59,4,Other
'a repeated observation is that the queue extends into the walking area in group study the food service operation is affected while the area is moderately occupied at 14:11 case 2730',library,14,61,69,4,Canteen
'please investigate because the campus network drops repeatedly during class in cooler a the network service is affected during a regular teaching period at 18:29 case 2731',utility,18,79,46,4,Network
'an urgent maintenance check is needed because standing water is creating an unhygienic patch in group study while another campus service remains normal after normal troubleshooting was attempted at 14:14 case 2732',library,14,86,63,5,Cleanliness
'today we noticed that multiple computers show storage errors in cl22-a while another campus service remains normal after normal troubleshooting was attempted at 18:46 case 2733',lab,18,51,58,2,Lab_Equipment
'for the second time this week the wired connection cannot reach institute services in g6 and staff assistance has been requested after normal troubleshooting was attempted at 9:01 case 2734',academic,9,69,45,3,Network
'a repeated observation is that the nearest water point is not operational in g6 the water service needs attention while another campus service remains normal at 9:59 case 2735',academic,9,57,42,5,Water
'today we noticed that network coverage disappears near the back rows in cl3-a the network service is affected without any warning notice at 8:45 case 2736',lab,8,69,55,3,Network
'during the latest session a spill has made the floor slippery in g2 this is a hygiene and cleanliness concern and several students are affected at 18:36 case 2738',academic,18,70,50,2,Cleanliness
'during the latest session the classroom door cannot close safely in ece-202 and the issue lasts more than ten minutes during a regular teaching period at 15:26 case 2739',lab,15,45,46,1,Canteen
'for the second time this week the wired connection cannot reach institute services in cs2 near the main entrance to the space near the main entrance to the space at 17:48 case 2742',academic,17,77,92,1,Water
'staff were informed that dust and litter remain around the workstations in cl22-b this is a hygiene and cleanliness concern without any warning notice at 17:02 case 2743',lab,17,29,57,2,Cleanliness
'a repeated observation is that a power socket is loose and unsafe in cr425 while the area is moderately occupied near the main entrance to the space at 16:57 case 2745',academic,16,46,58,1,Electrical
'students report that water is leaking into the walking area in security post while another campus service remains normal near the main entrance to the space at 12:53 case 2746',outdoor,12,50,54,1,Water
'staff were informed that dust and litter remain around the workstations in cr202 this is a hygiene and cleanliness concern while the area is moderately occupied at 14:18 case 2747',academic,14,75,75,2,Cleanliness
'a repeated observation is that a campus service is unavailable without an explanation in g2 campus operations are being disrupted and the condition has become more frequent at 14:31 case 2748',academic,14,70,28,5,Other
'an urgent maintenance check is needed because signage for the room is missing in cs2 the physical infrastructure needs attention and it interrupts scheduled teaching at 11:49 case 2749',academic,11,4,54,3,Water
'an urgent maintenance check is needed because the filtration unit shows a service warning in cl3-b and the condition has become more frequent near the main entrance to the space at 16:20 case 2750',lab,16,100,36,4,Water
'please investigate because the projector loses its input after a few minutes in cl3-b the physical infrastructure needs attention although nearby rooms remain usable at 10:46 case 2752',lab,10,71,57,3,Infrastructure
'please investigate because the service queue is moving very slowly in g6 while another campus service remains normal near the main entrance to the space at 13:35 case 2753',academic,13,100,41,3,Canteen
'for the second time this week the device driver is missing from the workstation in food court laboratory equipment availability is affected although nearby rooms remain usable at 18:57 case 2755',food,18,61,64,3,Lab_Equipment
'a repeated observation is that internet speed falls below a usable level in ts11 the network service is affected and the condition has become more frequent at 17:45 case 2756',academic,17,6,58,1,Network
'staff were informed that an electrical panel is making an unusual sound in h5 corridor 1 the electrical supply needs inspection and the issue lasts more than ten minutes at 16:21 case 2757',hostel,16,86,65,4,Electrical
'students report that several desks have loose or damaged fittings in cl3-b the physical infrastructure needs attention and staff assistance has been requested at 9:10 case 2758',lab,9,47,53,2,Infrastructure
'during the latest session students are waiting too long for food service in ts12 without any warning notice after normal troubleshooting was attempted at 17:12 case 2759',academic,17,79,46,2,Canteen
'during the latest session the classroom door cannot close safely in cl22-a the physical infrastructure needs attention after normal troubleshooting was attempted at 15:19 case 2760',lab,15,37,62,3,Infrastructure
'an urgent maintenance check is needed because pedestrian movement is restricted by stored material in h5 corridor 2 campus operations are being disrupted without any warning notice at 10:56 case 2761',hostel,10,84,60,4,Other
'an urgent maintenance check is needed because a switchboard becomes warm during operation in cl3-a while the area is moderately occupied while the area is moderately occupied at 10:20 case 2764',lab,10,50,40,2,Electrical
'an urgent maintenance check is needed because the lunch rush is blocking the entrance in main hall the food service operation is affected and staff assistance has been requested at 15:52 case 2765',common,15,1,67,1,Canteen
'students report that directional signage is unclear for new students in reading hall and the issue lasts more than ten minutes after normal troubleshooting was attempted at 10:07 case 2766',library,10,76,58,1,Other
'for the second time this week water is collecting beneath the dispenser in ece-201 near the main entrance to the space and staff assistance has been requested at 14:17 case 2767',lab,14,72,45,2,Water
'an urgent maintenance check is needed because the lunch rush is blocking the entrance in g2 and the issue lasts more than ten minutes after normal troubleshooting was attempted at 17:57 case 2768',academic,17,24,50,3,Canteen
'today we noticed that ceiling plaster appears loose near the entrance in g3 although nearby rooms remain usable and the condition has become more frequent at 9:39 case 2769',academic,9,76,58,3,Infrastructure
'today we noticed that the notice board contains outdated information in cr425 campus operations are being disrupted although nearby rooms remain usable at 11:25 case 2770',academic,11,36,47,2,Other
'staff were informed that billing and collection lines are merging into one queue in cr102 the food service operation is affected and staff assistance has been requested at 9:06 case 2771',academic,9,38,59,5,Canteen
'an urgent maintenance check is needed because the lab printer is unavailable to student systems in g6 laboratory equipment availability is affected and the issue lasts more than ten minutes at 10:22 case 2772',academic,10,88,38,2,Lab_Equipment
'please investigate because the area has not been cleaned since the morning in h5 common room this is a hygiene and cleanliness concern and it interrupts scheduled teaching at 8:44 case 2775',hostel,8,36,49,4,Cleanliness
'during the latest session the common area is overcrowded in ts17 campus operations are being disrupted while the area is moderately occupied at 17:09 case 2776',academic,17,97,57,2,Other
'please investigate because the area has not been cleaned since the morning in reading hall without any warning notice and staff assistance has been requested at 8:37 case 2777',library,8,61,42,2,Cleanliness
'today we noticed that ceiling plaster appears loose near the entrance in counter a the physical infrastructure needs attention during a regular teaching period at 10:49 case 2778',food,10,84,55,3,Infrastructure
'staff were informed that billing and collection lines are merging into one queue in ts18 and several students are affected and the issue lasts more than ten minutes at 14:26 case 2779',academic,14,49,56,3,Canteen
'students report that the wifi signal is unstable for several devices in gh common room the network service is affected during a regular teaching period at 9:47 case 2780',hostel,9,34,59,4,Network
'for the second time this week the help desk is closed during published hours in cl15-a while the area is moderately occupied while the area is moderately occupied at 8:05 case 2781',lab,8,70,46,2,Other
'for the second time this week order processing has stopped at one counter in h5 corridor 1 the food service operation is affected although nearby rooms remain usable at 14:01 case 2782',hostel,14,67,37,2,Canteen
'staff were informed that dust and litter remain around the workstations in g2 and the condition has become more frequent although nearby rooms remain usable at 13:16 case 2783',academic,13,98,65,3,Cleanliness
'a repeated observation is that internet speed falls below a usable level in group study and it interrupts scheduled teaching while the area is moderately occupied at 15:17 case 2784',library,15,46,32,3,Network
'students report that water is leaking into the walking area in security post without any warning notice and the issue lasts more than ten minutes at 12:02 case 2785',outdoor,12,77,55,3,Water
'staff were informed that billing and collection lines are merging into one queue in cs2 and several students are affected and the issue lasts more than ten minutes at 15:09 case 2786',academic,15,49,34,4,Canteen
'staff were informed that the writing surface is damaged and difficult to use in cr425 the physical infrastructure needs attention although nearby rooms remain usable at 15:05 case 2787',academic,15,68,43,4,Infrastructure
'today we noticed that the corridor has a persistent hygiene problem in h5 corridor 1 while another campus service remains normal after normal troubleshooting was attempted at 17:37 case 2788',hostel,17,68,46,1,Cleanliness
'during the latest session water pressure is too low for normal use in billing counter the water service needs attention while another campus service remains normal at 11:06 case 2789',food,11,79,56,4,Water
'during the latest session students are waiting too long for food service in group study the food service operation is affected although nearby rooms remain usable at 9:51 case 2790',library,9,73,52,4,Canteen
'please investigate because the service queue is moving very slowly in student parking without any warning notice and staff assistance has been requested at 11:49 case 2791',outdoor,11,83,77,2,Canteen
'today we noticed that network coverage disappears near the back rows in cr202 during a regular teaching period while the area is moderately occupied at 13:18 case 2793',academic,13,68,51,1,Network
'students report that the wifi signal is unstable for several devices in reading hall near the main entrance to the space near the main entrance to the space at 9:55 case 2794',library,9,88,48,1,Water
'please investigate because parking congestion is blocking access in h5 common room and the issue lasts more than ten minutes without any warning notice at 8:39 case 2795',hostel,8,61,66,2,Other
'please investigate because the area has not been cleaned since the morning in cl15-a and staff assistance has been requested while another campus service remains normal at 15:22 case 2796',lab,15,56,56,2,Cleanliness
'an urgent maintenance check is needed because the lab printer is unavailable to student systems in cl3-b near the main entrance to the space without any warning notice at 16:49 case 2797',lab,16,5,63,4,Lab_Equipment
'students report that the wifi signal is unstable for several devices in cr101 while another campus service remains normal after normal troubleshooting was attempted at 14:52 case 2798',academic,14,48,68,2,Network
'please investigate because the area has not been cleaned since the morning in h4 common room and staff assistance has been requested without any warning notice at 16:30 case 2802',hostel,16,66,27,1,Cleanliness
'staff were informed that online resources time out during the session in student parking while the area is moderately occupied and staff assistance has been requested at 12:53 case 2803',outdoor,12,94,34,5,Network
'students report that the wifi signal is unstable for several devices in cooler a the network service is affected and the issue lasts more than ten minutes at 15:25 case 2804',utility,15,74,49,2,Network
'for the second time this week the ventilation fan does not start in reading hall and it interrupts scheduled teaching without any warning notice at 8:08 case 2805',library,8,39,47,5,Electrical
'today we noticed that ceiling plaster appears loose near the entrance in h4 corridor 2 the physical infrastructure needs attention after normal troubleshooting was attempted at 8:14 case 2806',hostel,8,22,69,4,Infrastructure
'during the latest session the classroom door cannot close safely in group study the physical infrastructure needs attention without any warning notice at 16:24 case 2807',library,16,80,81,2,Infrastructure
'staff were informed that dust and litter remain around the workstations in cl3-b and the issue lasts more than ten minutes and the issue lasts more than ten minutes at 13:49 case 2809',lab,13,50,68,4,Cleanliness
'staff were informed that a tap continues running after it is closed in washroom g after normal troubleshooting was attempted during a regular teaching period at 17:30 case 2810',utility,17,68,60,1,Water
'please investigate because the drinking-water dispenser is empty in group study the water service needs attention while the area is moderately occupied at 8:35 case 2812',library,8,72,58,1,Water
'for the second time this week order processing has stopped at one counter in h4 common room the food service operation is affected without any warning notice at 8:42 case 2815',hostel,8,64,70,2,Canteen
'please investigate because parking congestion is blocking access in security post campus operations are being disrupted and it interrupts scheduled teaching at 17:26 case 2817',outdoor,17,58,42,5,Other
'an urgent maintenance check is needed because pedestrian movement is restricted by stored material in cl1-a campus operations are being disrupted while the area is moderately occupied at 16:03 case 2818',lab,16,77,28,2,Other
'a repeated observation is that the queue extends into the walking area in cr425 during a regular teaching period near the main entrance to the space at 14:49 case 2820',academic,14,85,62,1,Canteen
'an urgent maintenance check is needed because video lectures buffer on the campus connection in gym the network service is affected and it interrupts scheduled teaching at 15:40 case 2822',sports,15,80,60,3,Network
'today we noticed that network coverage disappears near the back rows in h5 common room while the area is moderately occupied and the issue lasts more than ten minutes at 8:32 case 2823',hostel,8,75,37,1,Network
'a repeated observation is that the nearest water point is not operational in counter a the water service needs attention although nearby rooms remain usable at 8:09 case 2824',food,8,43,67,4,Water
'an urgent maintenance check is needed because pedestrian movement is restricted by stored material in gym campus operations are being disrupted and it interrupts scheduled teaching at 13:38 case 2825',sports,13,52,23,3,Other
'staff were informed that the experiment console does not record readings in dining hall laboratory equipment availability is affected without any warning notice at 11:21 case 2826',food,11,90,50,4,Lab_Equipment
'today we noticed that ceiling plaster appears loose near the entrance in g2 and staff assistance has been requested during a regular teaching period at 10:37 case 2827',academic,10,61,68,4,Infrastructure
'students report that waste bins are overflowing into the corridor in group study and it interrupts scheduled teaching although nearby rooms remain usable at 17:31 case 2828',library,17,44,41,1,Cleanliness
'please investigate because the campus network drops repeatedly during class in g1 during a regular teaching period after normal troubleshooting was attempted at 10:03 case 2829',academic,10,54,43,1,Network
'for the second time this week the lecture-room screen does not lower correctly in g5 the physical infrastructure needs attention while the area is moderately occupied at 12:44 case 2831',academic,12,63,67,2,Infrastructure
'today we noticed that multiple computers show storage errors in cs2 laboratory equipment availability is affected during a regular teaching period at 15:58 case 2832',academic,15,44,66,4,Lab_Equipment
'for the second time this week the wired connection cannot reach institute services in visitor parking the network service is affected near the main entrance to the space at 13:27 case 2833',outdoor,13,87,20,2,Network
'for the second time this week the wired connection cannot reach institute services in dining hall the network service is affected although nearby rooms remain usable at 9:49 case 2835',food,9,51,54,5,Network
'a repeated observation is that laboratory equipment reports a calibration error in main hall laboratory equipment availability is affected while another campus service remains normal at 18:40 case 2836',common,18,65,69,3,Lab_Equipment
'today we noticed that ceiling plaster appears loose near the entrance in cl15-b and staff assistance has been requested and the condition has become more frequent at 10:30 case 2838',lab,10,70,58,1,Infrastructure
